LatticeConstant 1.0 Ang
%block LatticeVectors
 40.25917519 0.00000000 0.00000000
 0.00000000 8.69350000 0.00000000
 0.00000000 0.00000000 50.00000000
%endblock LatticeVectors

NumberOfSpecies 3
%block ChemicalSpeciesLabel
 1 1 H
 2 6 C
 3 8 O
%endblock ChemicalSpeciesLabel

NumberOfAtoms 122
AtomicCoordinatesFormat Ang
%block AtomicCoordinatesAndAtomicSpecies
 27.63742917  7.27272474 24.99999999 1 #   1: H
 11.46587809  7.31131500 25.00000003 1 #   2: H
  0.68079510  5.38698447 25.00000000 2 #   3: C
  0.68377050  3.93928970 25.00000000 2 #   4: C
  0.68346267  8.28701842 25.00000000 2 #   5: C
  0.68560122  1.04139487 25.00000000 2 #   6: C
  1.93003991  3.21455521 25.00000000 2 #   7: C
  1.93157574  1.76697963 25.00000000 2 #   8: C
  1.93229416  6.10406300 25.00000000 2 #   9: C
  1.93710875  7.57274761 25.00000000 2 #  10: C
  3.14397802  5.35852420 25.00000000 2 #  11: C
  3.15117109  8.31810960 25.00000000 2 #  12: C
  3.17859610  3.94742623 25.00000000 2 #  13: C
  3.18355988  1.03657207 25.00000000 2 #  14: C
  4.13010644  5.93020197 25.00000000 1 #  15: H
  4.14657977  7.76117246 25.00000000 1 #  16: H
  4.46013486  1.77488850 25.00000000 2 #  17: C
  4.46040487  3.21224309 25.00000000 2 #  18: C
  5.70474471  3.90571323 25.00000000 2 #  19: C
  5.69829287  5.04455718 25.00000000 1 #  20: H
  5.72823448  1.11078504 25.00000000 2 #  21: C
  5.78899777  8.65996786 25.00000000 1 #  22: H
  6.94043748  1.81879472 25.00000000 2 #  23: C
  6.95808286  3.25147950 25.00000000 2 #  24: C
  7.23168457  6.07446726 25.00000001 1 #  25: H
  7.91291592  1.20992561 25.00000000 1 #  26: H
  8.20592034  5.47232883 25.00000001 2 #  27: C
  8.22396576  4.04512157 25.00000000 2 #  28: C
  9.37617923  7.34596964 25.00000000 1 #  29: H
  9.41043035  6.19507706 25.00000000 2 #  30: C
  9.49768965  3.41660972 25.00000000 2 #  31: C
  9.52768025  2.27552826 25.00000000 1 #  32: H
 10.67534314  5.54893480 24.99999997 2 #  33: C
 10.74633458  4.10661078 24.99999998 2 #  34: C
 11.07307336  1.28868847 24.99999997 1 #  35: H
 11.82752715  6.34735041 24.99999998 3 #  36: O
 12.02653354  3.33301728 24.99999998 2 #  37: C
 12.04399739  1.89635424 24.99999998 2 #  38: C
 13.21373653  0.04261630 24.99999997 1 #  39: H
 13.24259680  5.13343402 25.00000000 1 #  40: H
 13.25382344  1.18833498 24.99999998 2 #  41: C
 13.28046394  3.99125872 24.99999999 2 #  42: C
 14.52098315  3.28762291 24.99999999 2 #  43: C
 14.52206162  1.85171453 24.99999999 2 #  44: C
 14.83648609  7.82765544 24.99999999 1 #  45: H
 14.83981262  5.99204490 24.99999999 1 #  46: H
 15.79699032  1.11047162 24.99999999 2 #  47: C
 15.80279278  4.02154384 24.99999999 2 #  48: C
 15.82861862  8.39144343 24.99999999 2 #  49: C
 15.83250815  5.43260534 24.99999999 2 #  50: C
 17.04308289  7.64649301 24.99999999 2 #  51: C
 17.04521633  6.17775602 24.99999999 2 #  52: C
 17.04844566  1.84105884 25.00000000 2 #  53: C
 17.05015592  3.28858740 25.00000000 2 #  54: C
 18.29426509  1.11528342 25.00000000 2 #  55: C
 18.29630692  8.36131638 25.00000000 2 #  56: C
 18.29638102  4.01346239 25.00000000 2 #  57: C
 18.29787190  5.46110451 25.00000000 2 #  58: C
 19.54665400  7.63126992 25.00000000 2 #  59: C
 19.54709962  1.84358189 25.00000000 2 #  60: C
 19.54802335  6.18929439 25.00000000 2 #  61: C
 19.54808930  3.28288375 25.00000000 2 #  62: C
 20.79718271  8.35864036 25.00000001 2 #  63: C
 20.79808129  5.45877496 25.00000000 2 #  64: C
 20.79930749  1.11314899 25.00000001 2 #  65: C
 20.80059232  4.01133053 25.00000000 2 #  66: C
 22.04531162  1.83757257 25.00000001 2 #  67: C
 22.04933615  7.64140005 25.00000000 2 #  68: C
 22.04668527  3.28507896 25.00000001 2 #  69: C
 22.05155177  6.17269302 25.00000000 2 #  70: C
 23.26223141  8.38574170 25.00000000 2 #  71: C
 23.26519650  5.42668774 25.00000000 2 #  72: C
 23.29466697  1.10408123 25.00000001 2 #  73: C
 23.29637443  4.01527668 25.00000001 2 #  74: C
 24.25237650  7.82066501 25.00000000 1 #  75: H
 24.25894545  5.98497883 25.00000000 1 #  76: H
 24.57129322  1.83987243 25.00000001 2 #  77: C
 24.57701137  3.27553082 25.00000001 2 #  78: C
 25.83623734  1.16863993 25.00000000 2 #  79: C
 25.82179833  3.97136864 25.00000001 2 #  80: C
 25.85917044  5.11313519 25.00000001 1 #  81: H
 25.87278338  0.02274266 25.00000000 1 #  82: H
 27.04904831  1.87060387 25.00000000 2 #  83: C
 27.07406074  3.30647925 25.00000000 2 #  84: C
 27.27857179  6.30804732 24.99999997 3 #  85: O
 28.01803065  1.25861118 25.00000000 1 #  86: H
 28.36045745  4.07101633 25.00000000 2 #  87: C
 28.43256460  5.51297452 25.00000000 2 #  88: C
 29.57913381  2.23672297 25.00000000 1 #  89: H
 29.60956918  3.37847622 25.00000000 2 #  90: C
 29.69763499  6.15856999 25.00000000 2 #  91: C
 29.73188735  7.30908926 24.99999999 1 #  92: H
 30.90101468  5.43370046 25.00000000 2 #  93: C
 30.88433192  4.00632370 25.00000000 2 #  94: C
 31.21359793  1.17449835 25.00000000 1 #  95: H
 31.87722938  6.03198747 25.00000000 1 #  96: H
 32.15718476  3.22087952 25.00000000 2 #  97: C
 32.18293330  1.78882283 25.00000000 2 #  98: C
 33.34601214  8.63713987 25.00000000 1 #  99: H
 33.40884935  5.02248677 25.00000000 1 # 100: H
 33.39906784  1.08853919 25.00000000 2 # 101: C
 33.40807978  3.88355737 25.00000000 2 # 102: C
 34.65773980  3.19952185 25.00000000 2 # 103: C
 34.66288727  1.76179604 25.00000000 2 # 104: C
 34.98224291  7.75272342 25.00000000 1 # 105: H
 34.98973757  5.92377383 25.00000000 1 # 106: H
 35.93928995  3.94083238 25.00000000 2 # 107: C
 35.94173933  1.02958902 25.00000000 2 # 108: C
 35.97625230  5.35248076 25.00000000 2 # 109: C
 35.97558481  8.31187563 25.00000000 2 # 110: C
 37.18954761  6.09916088 25.00000000 2 # 111: C
 37.18882653  7.56793464 25.00000000 2 # 112: C
 37.19048405  3.21101878 25.00000000 2 # 113: C
 37.19152534  1.76333731 25.00000000 2 # 114: C
 38.43723726  3.93707617 25.00000000 2 # 115: C
 38.43849523  1.03962951 25.00000000 2 # 116: C
 38.44192972  5.38456434 25.00000000 2 # 117: C
 38.44154246  8.28513689 25.00000000 2 # 118: C
 39.69042692  3.20870539 25.00000000 2 # 119: C
 39.69097575  6.11496547 25.00000000 2 # 120: C
 39.69137448  1.76936672 25.00000000 2 # 121: C
 39.69219787  7.55691928 25.00000000 2 # 122: C
%endblock AtomicCoordinatesAndAtomicSpecies


