# Created by GDIS version 0.90.0
#

SystemLabel      NPG-normal

NumberOfAtoms    80

NumberOfSpecies  1
%block ChemicalSpeciesLabel
    1    6  C
%endblock ChemicalSpeciesLabel

LatticeConstant 1.0 Ang
%block LatticeVectors
  32.7862152500    0.0000000000    0.0000000000
   0.0000000000    8.6934634800    0.0000000000
   0.0000000000    0.0000000000   50.0000000000
%endblock LatticeVectors

AtomicCoordinatesFormat NotScaledCartesianAng
%block AtomicCoordinatesAndAtomicSpecies
    24.587936790     2.849522650    25.000000000    1
    23.371747850     3.545484300    25.000000000    1
    22.114990430     1.435452840    25.000000000    1
    22.107072900     2.874399670    25.000000000    1
    20.828282050     0.699158350    25.000000000    1
    20.825497360     3.607105640    25.000000000    1
    20.785264710     7.982217290    25.000000000    1
    20.785490350     5.018275420    25.000000000    1
    19.575741350     1.429087370    25.000000000    1
    19.574015090     2.875969260    25.000000000    1
    19.574534650     7.234598710    25.000000000    1
    19.574852000     5.765233000    25.000000000    1
    18.326774010     0.704489490    25.000000000    1
    18.326097480     3.600531730    25.000000000    1
    18.322122640     7.950220830    25.000000000    1
    18.322174450     5.048626200    25.000000000    1
    17.072209850     1.432756740    25.000000000    1
    17.072299850     7.220595830    25.000000000    1
    17.072096330     5.777717210    25.000000000    1
    17.072071660     2.872003440    25.000000000    1
    15.822515370     7.949720580    25.000000000    1
    15.821993540     5.048275670    25.000000000    1
    15.817812200     0.704022220    25.000000000    1
    15.817943800     3.600216200    25.000000000    1
    14.570500810     7.233356940    25.000000000    1
    14.569108100     5.764118560    25.000000000    1
    14.568810100     1.428194690    25.000000000    1
    14.570031560     2.875204770    25.000000000    1
    13.359984710     7.980293020    25.000000000    1
    13.358306500     5.016623130    25.000000000    1
    13.317063340     0.697109000    25.000000000    1
    13.318007360     3.605342820    25.000000000    1
    23.369917550     0.753124700    25.000000000    1
    12.030400070     1.431920770    25.000000000    1
    12.037081310     2.870839710    25.000000000    1
    10.776657760     0.747132600    25.000000000    1
    10.771008460     3.539319540    25.000000000    1
    24.624008580     1.415587000    25.000000000    1
     9.521904720     1.407384360    25.000000000    1
     9.556017000     2.841266360    25.000000000    1
    25.950046220     7.911129360    25.000000000    1
    25.915827950     0.651508330    25.000000000    1
     8.195907900     7.901833940    25.000000000    1
     8.230825850     0.642321330    25.000000000    1
    27.164469380     7.212037090    25.000000000    1
    27.170954760     1.311328050    25.000000000    1
    28.430846790     7.879845820    25.000000000    1
    28.424337700     0.625294700    25.000000000    1
     6.980122410     7.205123120    25.000000000    1
     6.976493360     1.303633970    25.000000000    1
     5.714690850     7.875001710    25.000000000    1
     5.722075230     0.620388640    25.000000000    1
    29.711603770     7.144924920    25.000000000    1
    29.711335950     1.359455320    25.000000000    1
    29.751662230     5.733541000    25.000000000    1
    29.754295280     2.769728400    25.000000000    1
    30.963824430     7.874714370    25.000000000    1
    30.963083040     0.628265120    25.000000000    1
    30.962751250     4.986067050    25.000000000    1
    30.964770240     3.516681140    25.000000000    1
    32.211705220     7.149576390    25.000000000    1
    32.212221620     1.352326080    25.000000000    1
    32.215845040     5.701543420    25.000000000    1
    32.216853620     2.800125480    25.000000000    1
     4.433286940     7.141941550    25.000000000    1
     4.435892140     1.356682660    25.000000000    1
     4.393074750     5.730780920    25.000000000    1
     4.393084200     2.767158170    25.000000000    1
     3.181765540     7.873042600    25.000000000    1
     3.183524670     0.626608360    25.000000000    1
     3.182307020     4.983895600    25.000000000    1
     3.182299310     3.514624180    25.000000000    1
     1.933805200     7.148447880    25.000000000    1
     1.934670230     1.351351490    25.000000000    1
     1.929663090     5.700439930    25.000000000    1
     1.930026790     2.799080810    25.000000000    1
     0.679903570     7.877372350    25.000000000    1
     0.679663080     4.971610310    25.000000000    1
     0.680386640     3.528879360    25.000000000    1
     0.680164750     0.623167960    25.000000000    1
%endblock AtomicCoordinatesAndAtomicSpecies

PAO.BasisType    split
PAO.BasisSize    DZP
SolutionMethod     diagon
PAO.SplitNorm    0.150000
PAO.EnergyShift    0.020000  Ry
Harris_functional    false
XC.functional    LDA
XC.Authors    PZ
SpinPolarized    false
MeshCutoff    100.000000 Ry
kgrid_cutoff    0.000000 Bohr
ElectronicTemperature    300.000000 K
MaxSCFIterations    50
DM.NumberPulay    0
DM.MixingWeight    0.250000
MD.TypeOfRun    CG
MD.VariableCell    false
MD.NumCGsteps    2093056
MD.MaxCGDispl    0.200000 Bohr
MD.PreconditionVariableCell    5.000000 Ang
MD.MaxStressTol    1.000000 GPa

%block MD.TargetStress
-1.000000 -1.000000 -1.000000 0.000000 0.000000 0.000000
%endblock MD.TargetStress

MD.MaxForceTol    0.040000 eV/Ang
MD.InitialTimeStep    1
MD.FinalTimeStep    1
MD.LengthTimeStep    1 fs
MD.InitialTemperature    0.000000 K
MD.Quench    false
MD.TargetTemperature    0.000000 K
MD.NoseMass    100.000000 Ry*fs**2
MD.ParrinelloRahmanMass    100.000000 Ry*fs**2
MD.AnnealOption    TemperatureandPressure
MD.TauRelax    100.000000 fs
MD.BulkModulus    100.000000 Ry/Bohr**3
MD.TargetPressure    0.000000 GPa
MD.FCDispl    0.040000 Bohr
MD.FCfirst    1
MD.FClast    0

UseSaveData		false
WriteCoorInital    true
WriteCoorStep    false
WriteForces		false
WriteKpoints		false
WriteEigenvalues		false
WriteKbands		false
WriteBands		false
WriteWaveFunctions		false
WriteMullikenPop		0
WriteDM		true
WriteCoorXmol		false
WriteCoorCerius		false
WriteMDXmol		false
WriteMDhistory		true
