NumberOfSpecies 1
%block ChemicalSpeciesLabel
 1 6 C
%endblock ChemicalSpeciesLabel

LatticeConstant 1.0 Ang
%block LatticeVectors
 34.44000000 0.00000000 0.00000000
 0.00000000 8.52000000 0.00000000
 0.00000000 0.00000000 50.00000000
%endblock LatticeVectors

NumberOfAtoms 112
AtomicCoordinatesFormat Ang
%block AtomicCoordinatesAndAtomicSpecies
  0.62000000  0.71000000 25.00000000 1 #   1: C
  0.62000000  3.55000000 25.00000000 1 #   2: C
  0.62000000  4.97000000 25.00000000 1 #   3: C
  0.62000000  7.81000000 25.00000000 1 #   4: C
  1.85000000  1.42000000 25.00000000 1 #   5: C
  1.85000000  2.84000000 25.00000000 1 #   6: C
  1.85000000  5.68000000 25.00000000 1 #   7: C
  1.85000000  7.10000000 25.00000000 1 #   8: C
  3.08000000  0.71000000 25.00000000 1 #   9: C
  3.08000000  3.55000000 25.00000000 1 #  10: C
  3.08000000  4.97000000 25.00000000 1 #  11: C
  3.08000000  7.81000000 25.00000000 1 #  12: C
  4.31000000  1.42000000 25.00000000 1 #  13: C
  4.31000000  2.84000000 25.00000000 1 #  14: C
  4.31000000  5.68000000 25.00000000 1 #  15: C
  4.31000000  7.10000000 25.00000000 1 #  16: C
  5.54000000  0.71000000 25.00000000 1 #  17: C
  5.54000000  3.55000000 25.00000000 1 #  18: C
  5.54000000  4.97000000 25.00000000 1 #  19: C
  5.54000000  7.81000000 25.00000000 1 #  20: C
  6.77000000  1.42000000 25.00000000 1 #  21: C
  6.77000000  2.84000000 25.00000000 1 #  22: C
  6.77000000  5.68000000 25.00000000 1 #  23: C
  6.77000000  7.10000000 25.00000000 1 #  24: C
  8.00000000  0.71000000 25.00000000 1 #  25: C
  8.00000000  3.55000000 25.00000000 1 #  26: C
  8.00000000  4.97000000 25.00000000 1 #  27: C
  8.00000000  7.81000000 25.00000000 1 #  28: C
  9.23000000  1.42000000 25.00000000 1 #  29: C
  9.23000000  2.84000000 25.00000000 1 #  30: C
  9.23000000  5.68000000 25.00000000 1 #  31: C
  9.23000000  7.10000000 25.00000000 1 #  32: C
 10.46000000  0.71000000 25.00000000 1 #  33: C
 10.46000000  3.55000000 25.00000000 1 #  34: C
 10.46000000  4.97000000 25.00000000 1 #  35: C
 10.46000000  7.81000000 25.00000000 1 #  36: C
 11.69000000  1.42000000 25.00000000 1 #  37: C
 11.69000000  2.84000000 25.00000000 1 #  38: C
 11.69000000  5.68000000 25.00000000 1 #  39: C
 11.69000000  7.10000000 25.00000000 1 #  40: C
 12.92000000  0.71000000 25.00000000 1 #  41: C
 12.92000000  3.55000000 25.00000000 1 #  42: C
 12.92000000  4.97000000 25.00000000 1 #  43: C
 12.92000000  7.81000000 25.00000000 1 #  44: C
 14.15000000  1.42000000 25.00000000 1 #  45: C
 14.15000000  2.84000000 25.00000000 1 #  46: C
 14.15000000  5.68000000 25.00000000 1 #  47: C
 14.15000000  7.10000000 25.00000000 1 #  48: C
 15.38000000  0.71000000 25.00000000 1 #  49: C
 15.38000000  3.55000000 25.00000000 1 #  50: C
 15.38000000  4.97000000 25.00000000 1 #  51: C
 15.38000000  7.81000000 25.00000000 1 #  52: C
 16.61000000  1.42000000 25.00000000 1 #  53: C
 16.61000000  2.84000000 25.00000000 1 #  54: C
 16.61000000  5.68000000 25.00000000 1 #  55: C
 16.61000000  7.10000000 25.00000000 1 #  56: C
 17.84000000  0.71000000 25.00000000 1 #  57: C
 17.84000000  3.55000000 25.00000000 1 #  58: C
 17.84000000  4.97000000 25.00000000 1 #  59: C
 17.84000000  7.81000000 25.00000000 1 #  60: C
 19.07000000  1.42000000 25.00000000 1 #  61: C
 19.07000000  2.84000000 25.00000000 1 #  62: C
 19.07000000  5.68000000 25.00000000 1 #  63: C
 19.07000000  7.10000000 25.00000000 1 #  64: C
 20.30000000  0.71000000 25.00000000 1 #  65: C
 20.30000000  3.55000000 25.00000000 1 #  66: C
 20.30000000  4.97000000 25.00000000 1 #  67: C
 20.30000000  7.81000000 25.00000000 1 #  68: C
 21.53000000  1.42000000 25.00000000 1 #  69: C
 21.53000000  2.84000000 25.00000000 1 #  70: C
 21.53000000  5.68000000 25.00000000 1 #  71: C
 21.53000000  7.10000000 25.00000000 1 #  72: C
 22.76000000  0.71000000 25.00000000 1 #  73: C
 22.76000000  3.55000000 25.00000000 1 #  74: C
 22.76000000  4.97000000 25.00000000 1 #  75: C
 22.76000000  7.81000000 25.00000000 1 #  76: C
 23.99000000  1.42000000 25.00000000 1 #  77: C
 23.99000000  2.84000000 25.00000000 1 #  78: C
 23.99000000  5.68000000 25.00000000 1 #  79: C
 23.99000000  7.10000000 25.00000000 1 #  80: C
 25.22000000  0.71000000 25.00000000 1 #  81: C
 25.22000000  3.55000000 25.00000000 1 #  82: C
 25.22000000  4.97000000 25.00000000 1 #  83: C
 25.22000000  7.81000000 25.00000000 1 #  84: C
 26.45000000  1.42000000 25.00000000 1 #  85: C
 26.45000000  2.84000000 25.00000000 1 #  86: C
 26.45000000  5.68000000 25.00000000 1 #  87: C
 26.45000000  7.10000000 25.00000000 1 #  88: C
 27.68000000  0.71000000 25.00000000 1 #  89: C
 27.68000000  3.55000000 25.00000000 1 #  90: C
 27.68000000  4.97000000 25.00000000 1 #  91: C
 27.68000000  7.81000000 25.00000000 1 #  92: C
 28.91000000  1.42000000 25.00000000 1 #  93: C
 28.91000000  2.84000000 25.00000000 1 #  94: C
 28.91000000  5.68000000 25.00000000 1 #  95: C
 28.91000000  7.10000000 25.00000000 1 #  96: C
 30.14000000  0.71000000 25.00000000 1 #  97: C
 30.14000000  3.55000000 25.00000000 1 #  98: C
 30.14000000  4.97000000 25.00000000 1 #  99: C
 30.14000000  7.81000000 25.00000000 1 # 100: C
 31.37000000  1.42000000 25.00000000 1 # 101: C
 31.37000000  2.84000000 25.00000000 1 # 102: C
 31.37000000  5.68000000 25.00000000 1 # 103: C
 31.37000000  7.10000000 25.00000000 1 # 104: C
 32.60000000  0.71000000 25.00000000 1 # 105: C
 32.60000000  3.55000000 25.00000000 1 # 106: C
 32.60000000  4.97000000 25.00000000 1 # 107: C
 32.60000000  7.81000000 25.00000000 1 # 108: C
 33.83000000  1.42000000 25.00000000 1 # 109: C
 33.83000000  2.84000000 25.00000000 1 # 110: C
 33.83000000  5.68000000 25.00000000 1 # 111: C
 33.83000000  7.10000000 25.00000000 1 # 112: C
%endblock AtomicCoordinatesAndAtomicSpecies


