LatticeConstant 1.0 Ang
%block LatticeVectors
 40.25917519 0.00000000 0.00000000
 0.00000000 8.69350000 0.00000000
 0.00000000 0.00000000 50.00000000
%endblock LatticeVectors

NumberOfSpecies 3
%block ChemicalSpeciesLabel
 1 1 H
 2 6 C
 3 8 O
%endblock ChemicalSpeciesLabel

NumberOfAtoms 124
AtomicCoordinatesFormat Ang
%block AtomicCoordinatesAndAtomicSpecies
 30.83822161  7.75537239 24.99999999 1 #   1: H
  8.30993820  7.81403193 25.00000000 1 #   2: H
 28.43096574  1.77048676 24.99999999 1 #   3: H
 10.70083347  1.81891696 24.99999998 1 #   4: H
 25.90536367  0.91820029 25.00000001 1 #   5: H
 13.26033629  0.94089052 24.99999997 1 #   6: H
 35.94996917  1.04844762 25.00000000 2 #   7: C
 38.44500509  1.05874221 25.00000000 2 #   8: C
  3.18935220  1.05494737 25.00000000 2 #   9: C
  0.69151260  1.06018073 25.00000000 2 #  10: C
 33.41386274  1.10024927 25.00000000 2 #  11: C
  5.73094726  1.12540837 25.00000000 2 #  12: C
 31.17818070  1.24664973 25.00000000 1 #  13: H
  7.96574462  1.28834745 25.00000000 1 #  14: H
 23.28935189  1.25613091 25.00000001 2 #  15: C
 15.86114110  1.26091624 24.99999999 2 #  16: C
 20.82421479  1.28564612 25.00000000 2 #  17: C
 18.32443067  1.28735553 24.99999999 2 #  18: C
 37.19832150  1.78247100 25.00000000 2 #  19: C
 34.67154646  1.77991309 25.00000000 2 #  20: C
  1.93800561  1.78556400 25.00000000 2 #  21: C
 39.69748379  1.78801216 25.00000000 2 #  22: C
  4.46687024  1.79282195 25.00000000 2 #  23: C
 32.19352815  1.78803146 25.00000000 2 #  24: C
 24.28148731  1.81679844 25.00000000 1 #  25: H
 14.87145691  1.82407754 25.00000000 1 #  26: H
  6.94751516  1.82326883 25.00000000 2 #  27: C
 22.07635295  2.00192074 25.00000001 2 #  28: C
 17.07277222  2.00562632 25.00000000 2 #  29: C
 19.57427418  2.01521944 25.00000000 2 #  30: C
 29.44298344  1.95013702 25.00000000 3 #  31: O
  9.68937067  1.99927659 25.00000000 3 #  32: O
 34.66094270  3.21830909 25.00000000 2 #  33: C
 39.69668271  3.22726707 25.00000000 2 #  34: C
 37.19490350  3.22981245 25.00000000 2 #  35: C
  1.93868390  3.23291975 25.00000000 2 #  36: C
  4.47235397  3.23124683 25.00000000 2 #  37: C
 32.16240662  3.22206686 25.00000000 2 #  38: C
  6.97130626  3.25856928 24.99999999 2 #  39: C
 29.56689764  3.34801587 25.00000000 2 #  40: C
  9.56405916  3.39618765 24.99999999 2 #  41: C
 19.57277698  3.45764796 25.00000000 2 #  42: C
 22.07381203  3.47057762 25.00000000 2 #  43: C
 17.07101432  3.47467754 25.00000000 2 #  44: C
 27.39889758  3.58281387 25.00000000 1 #  45: H
 11.73086915  3.62814112 24.99999999 1 #  46: H
 24.26934578  3.64061058 25.00000000 1 #  47: H
 14.87449956  3.64483923 24.99999999 1 #  48: H
 33.40970716  3.89960749 25.00000000 2 #  49: C
  5.71819516  3.92338996 25.00000000 2 #  50: C
 38.44237002  3.95530043 25.00000000 2 #  51: C
  0.69108378  3.95714922 25.00000000 2 #  52: C
 35.94346708  3.95929364 25.00000000 2 #  53: C
  3.18813138  3.96566028 25.00000000 2 #  54: C
 30.86958303  3.96820678 25.00000000 2 #  55: C
  8.26061128  4.01501911 25.00000000 2 #  56: C
 28.39773906  4.14460940 25.00000000 2 #  57: C
 10.73368857  4.19052085 24.99999999 2 #  58: C
 20.82213307  4.18685641 25.00000000 2 #  59: C
 18.32326719  4.18862744 25.00000000 2 #  60: C
 23.28580143  4.21580116 25.00000000 2 #  61: C
 15.85775835  4.22044726 25.00000000 2 #  62: C
 25.82636376  4.52863962 25.00000001 1 #  63: H
 13.30370795  4.55032083 24.99999999 1 #  64: H
 33.42522557  5.03856051 25.00000000 1 #  65: H
  5.69556160  5.06250716 25.00000000 1 #  66: H
 35.98160496  5.37039054 25.00000000 2 #  67: C
  3.15109710  5.37599889 25.00000000 2 #  68: C
 38.44721768  5.40281095 25.00000000 2 #  69: C
  0.68707716  5.40496393 25.00000000 2 #  70: C
 30.85974589  5.39192162 25.00000000 2 #  71: C
  8.27161308  5.44075380 25.00000000 2 #  72: C
 28.38899948  5.57075666 25.00000001 2 #  73: C
 10.74585394  5.61502642 24.99999999 2 #  74: C
 23.32236577  5.62623298 25.00000000 2 #  75: C
 15.81945364  5.63170418 24.99999999 2 #  76: C
 20.82609462  5.63452876 25.00000000 2 #  77: C
 18.31846787  5.63629540 24.99999999 2 #  78: C
 25.84995777  5.66750469 25.00000001 2 #  79: C
 13.28645910  5.68937462 24.99999999 2 #  80: C
 34.99762792  5.94466828 25.00000000 1 #  81: H
  4.13499390  5.95010899 25.00000000 1 #  82: H
 31.85643563  5.95447720 25.00000000 1 #  83: H
  7.27311083  6.00254806 25.00000000 1 #  84: H
 37.19480069  6.11645716 25.00000000 2 #  85: C
  1.93891019  6.12091462 25.00000000 2 #  86: C
 39.69669190  6.13410386 25.00000000 2 #  87: C
 29.69238701  6.18797096 24.99999999 2 #  88: C
  9.44297410  6.23532004 24.99999999 2 #  89: C
 27.10331281  6.33092267 25.00000002 2 #  90: C
 12.03785988  6.36417401 24.99999999 2 #  91: C
 24.60565563  6.36099969 25.00000001 2 #  92: C
 22.07344797  6.35878323 25.00000000 2 #  93: C
 17.07086791  6.36160771 24.99999999 2 #  94: C
 14.53706834  6.37208803 24.99999998 2 #  95: C
 19.57261822  6.36438985 24.99999999 2 #  96: C
 29.82482841  7.58385704 24.99999997 3 #  97: O
  9.32165507  7.63302426 24.99999996 3 #  98: O
 39.69815250  7.57646460 25.00000000 2 #  99: C
 37.19623841  7.58547530 25.00000000 2 # 100: C
  1.94151820  7.58962704 25.00000000 2 # 101: C
 27.08259455  7.76654270 25.00000005 2 # 102: C
 34.99411649  7.76905252 25.00000000 1 # 103: H
 12.06906229  7.79886631 24.99999998 2 # 104: C
  4.14678219  7.77539326 25.00000000 1 # 105: H
 24.60179936  7.79923166 25.00000001 2 # 106: C
 14.54727910  7.81054300 24.99999998 2 # 107: C
 19.57396199  7.80353660 25.00000000 2 # 108: C
 22.07361289  7.80634242 25.00000000 2 # 109: C
 17.07452322  7.80909943 24.99999999 2 # 110: C
 38.44817478  8.30436942 25.00000000 2 # 111: C
  0.68889630  8.30593229 25.00000000 2 # 112: C
 28.10233468  8.29882479 25.00000003 1 # 113: H
 35.98458542  8.33049532 25.00000000 2 # 114: C
  3.15457847  8.33581806 25.00000000 2 # 115: C
 11.05322790  8.33852607 24.99999997 1 # 116: H
 25.86654316  8.46593949 25.00000003 2 # 117: C
 13.28902357  8.48871020 24.99999998 2 # 118: C
 20.82735905  8.53137109 25.00000000 2 # 119: C
 18.32137986  8.53285015 24.99999999 2 # 120: C
 23.32454857  8.53724159 25.00000000 2 # 121: C
 15.82575390  8.54277655 24.99999998 2 # 122: C
 33.38372061  8.64825175 25.00000000 1 # 123: H
  5.77035064  8.67308331 25.00000000 1 # 124: H
%endblock AtomicCoordinatesAndAtomicSpecies


