# Created by GDIS version 0.90.0
#

SystemLabel      hydroxremove

NumberOfAtoms    116

NumberOfSpecies  2
%block ChemicalSpeciesLabel
    1    1  H
    2    6  C
%endblock ChemicalSpeciesLabel

LatticeConstant 1.0 Ang
%block LatticeVectors
  40.2591751900    0.0000000000    0.0000000000
   0.0000000000    8.6935000000    0.0000000000
   0.0000000000    0.0000000000   50.0000000000
%endblock LatticeVectors

AtomicCoordinatesFormat NotScaledCartesianAng
%block AtomicCoordinatesAndAtomicSpecies
    25.905363670     0.918200290    25.000000010    1
    13.260336290     0.940890520    24.999999970    1
    35.949969170     1.048447620    25.000000000    2
    38.445005090     1.058742210    25.000000000    2
     3.189352200     1.054947370    25.000000000    2
     0.691512600     1.060180730    25.000000000    2
    33.413862740     1.100249270    25.000000000    2
     5.730947260     1.125408370    25.000000000    2
    31.178180700     1.246649730    25.000000000    1
     7.965744620     1.288347450    25.000000000    1
    23.289351890     1.256130910    25.000000010    2
    15.861141100     1.260916240    24.999999990    2
    20.824214790     1.285646120    25.000000000    2
    18.324430670     1.287355530    24.999999990    2
    37.198321500     1.782471000    25.000000000    2
    34.671546460     1.779913090    25.000000000    2
     1.938005610     1.785564000    25.000000000    2
    39.697483790     1.788012160    25.000000000    2
     4.466870240     1.792821950    25.000000000    2
    32.193528150     1.788031460    25.000000000    2
    24.281487310     1.816798440    25.000000000    1
    14.871456910     1.824077540    25.000000000    1
     6.947515160     1.823268830    25.000000000    2
    22.076352950     2.001920740    25.000000010    2
    17.072772220     2.005626320    25.000000000    2
    19.574274180     2.015219440    25.000000000    2
    34.660942700     3.218309090    25.000000000    2
    39.696682710     3.227267070    25.000000000    2
    37.194903500     3.229812450    25.000000000    2
     1.938683900     3.232919750    25.000000000    2
     4.472353970     3.231246830    25.000000000    2
    32.162406620     3.222066860    25.000000000    2
     6.971306260     3.258569280    24.999999990    2
    29.566897640     3.348015870    25.000000000    2
     9.564059160     3.396187650    24.999999990    2
    19.572776980     3.457647960    25.000000000    2
    22.073812030     3.470577620    25.000000000    2
    17.071014320     3.474677540    25.000000000    2
    27.398897580     3.582813870    25.000000000    1
    11.730869150     3.628141120    24.999999990    1
    24.269345780     3.640610580    25.000000000    1
    14.874499560     3.644839230    24.999999990    1
    33.409707160     3.899607490    25.000000000    2
     5.718195160     3.923389960    25.000000000    2
    38.442370020     3.955300430    25.000000000    2
     0.691083780     3.957149220    25.000000000    2
    35.943467080     3.959293640    25.000000000    2
     3.188131380     3.965660280    25.000000000    2
    30.869583030     3.968206780    25.000000000    2
     8.260611280     4.015019110    25.000000000    2
    28.397739060     4.144609400    25.000000000    2
    10.733688570     4.190520850    24.999999990    2
    20.822133070     4.186856410    25.000000000    2
    18.323267190     4.188627440    25.000000000    2
    23.285801430     4.215801160    25.000000000    2
    15.857758350     4.220447260    25.000000000    2
    25.826363760     4.528639620    25.000000010    1
    13.303707950     4.550320830    24.999999990    1
    33.425225570     5.038560510    25.000000000    1
     5.695561600     5.062507160    25.000000000    1
    35.981604960     5.370390540    25.000000000    2
     3.151097100     5.375998890    25.000000000    2
    38.447217680     5.402810950    25.000000000    2
     0.687077160     5.404963930    25.000000000    2
    30.859745890     5.391921620    25.000000000    2
     8.271613080     5.440753800    25.000000000    2
    28.388999480     5.570756660    25.000000010    2
    10.745853940     5.615026420    24.999999990    2
    23.322365770     5.626232980    25.000000000    2
    15.819453640     5.631704180    24.999999990    2
    20.826094620     5.634528760    25.000000000    2
    18.318467870     5.636295400    24.999999990    2
    25.849957770     5.667504690    25.000000010    2
    13.286459100     5.689374620    24.999999990    2
    34.997627920     5.944668280    25.000000000    1
     4.134993900     5.950108990    25.000000000    1
    31.856435630     5.954477200    25.000000000    1
     7.273110830     6.002548060    25.000000000    1
    37.194800690     6.116457160    25.000000000    2
     1.938910190     6.120914620    25.000000000    2
    39.696691900     6.134103860    25.000000000    2
    29.692387010     6.187970960    24.999999990    2
     9.442974100     6.235320040    24.999999990    2
    27.103312810     6.330922670    25.000000020    2
    12.037859880     6.364174010    24.999999990    2
    24.605655630     6.360999690    25.000000010    2
    22.073447970     6.358783230    25.000000000    2
    17.070867910     6.361607710    24.999999990    2
    14.537068340     6.372088030    24.999999980    2
    19.572618220     6.364389850    24.999999990    2
    39.698152500     7.576464600    25.000000000    2
    37.196238410     7.585475300    25.000000000    2
     1.941518200     7.589627040    25.000000000    2
    27.082594550     7.766542700    25.000000050    2
    34.994116490     7.769052520    25.000000000    1
    12.069062290     7.798866310    24.999999980    2
     4.146782190     7.775393260    25.000000000    1
    24.601799360     7.799231660    25.000000010    2
    14.547279100     7.810543000    24.999999980    2
    19.573961990     7.803536600    25.000000000    2
    22.073612890     7.806342420    25.000000000    2
    17.074523220     7.809099430    24.999999990    2
    38.448174780     8.304369420    25.000000000    2
     0.688896300     8.305932290    25.000000000    2
    28.102334680     8.298824790    25.000000030    1
    35.984585420     8.330495320    25.000000000    2
     3.154578470     8.335818060    25.000000000    2
    11.053227900     8.338526070    24.999999970    1
    25.866543160     8.465939490    25.000000030    2
    13.289023570     8.488710200    24.999999980    2
    20.827359050     8.531371090    25.000000000    2
    18.321379860     8.532850150    24.999999990    2
    23.324548570     8.537241590    25.000000000    2
    15.825753900     8.542776550    24.999999980    2
    33.383720610     8.648251750    25.000000000    1
     5.770350640     8.673083310    25.000000000    1
%endblock AtomicCoordinatesAndAtomicSpecies

PAO.BasisType    split
PAO.BasisSize    DZP
SolutionMethod     diagon
PAO.SplitNorm    0.150000
PAO.EnergyShift    0.020000  Ry
Harris_functional    false
XC.functional    LDA
XC.Authors    PZ
SpinPolarized    false
MeshCutoff    100.000000 Ry
kgrid_cutoff    0.000000 Bohr
ElectronicTemperature    300.000000 K
MaxSCFIterations    50
DM.NumberPulay    0
DM.MixingWeight    0.250000
MD.TypeOfRun    CG
MD.VariableCell    false
MD.NumCGsteps    10844
MD.MaxCGDispl    0.200000 Bohr
MD.PreconditionVariableCell    5.000000 Ang
MD.MaxStressTol    1.000000 GPa

%block MD.TargetStress
-1.000000 -1.000000 -1.000000 0.000000 0.000000 0.000000
%endblock MD.TargetStress

MD.MaxForceTol    0.040000 eV/Ang
MD.InitialTimeStep    1
MD.FinalTimeStep    1
MD.LengthTimeStep    1 fs
MD.InitialTemperature    0.000000 K
MD.Quench    false
MD.TargetTemperature    0.000000 K
MD.NoseMass    100.000000 Ry*fs**2
MD.ParrinelloRahmanMass    100.000000 Ry*fs**2
MD.AnnealOption    TemperatureandPressure
MD.TauRelax    100.000000 fs
MD.BulkModulus    100.000000 Ry/Bohr**3
MD.TargetPressure    0.000000 GPa
MD.FCDispl    0.040000 Bohr
MD.FCfirst    1
MD.FClast    0

UseSaveData		false
WriteCoorInital    true
WriteCoorStep    false
WriteForces		false
WriteKpoints		false
WriteEigenvalues		false
WriteKbands		false
WriteBands		false
WriteWaveFunctions		false
WriteMullikenPop		0
WriteDM		true
WriteCoorXmol		false
WriteCoorCerius		false
WriteMDXmol		false
WriteMDhistory		true
