LatticeConstant 1.0 Ang
%block LatticeVectors
 40.25917519 0.00000000 0.00000000
 0.00000000 8.69350000 0.00000000
 0.00000000 0.00000000 50.00000000
%endblock LatticeVectors

NumberOfSpecies 3
%block ChemicalSpeciesLabel
 1 6 C
 2 1 H
 3 9 F
%endblock ChemicalSpeciesLabel

NumberOfAtoms 120
AtomicCoordinatesFormat Ang
%block AtomicCoordinatesAndAtomicSpecies
  0.67643272  5.39497184 25.00000000 1 #   1: C
  0.67854040  3.94694647 25.00000000 1 #   2: C
  0.67814367  8.29498121 25.00000000 1 #   3: C
  0.68072309  1.04931385 25.00000000 1 #   4: C
  1.92555790  3.22263630 25.00000000 1 #   5: C
  1.92760045  1.77527021 25.00000000 1 #   6: C
  1.92852260  6.11203299 25.00000000 1 #   7: C
  1.93230980  7.58072921 25.00000000 1 #   8: C
  3.13945705  5.36582176 25.00000000 1 #   9: C
  3.14667492  8.32776589 25.00000001 1 #  10: C
  3.17379126  3.95573917 25.00000000 1 #  11: C
  3.18120725  1.04641781 25.00000000 1 #  12: C
  4.12539965  5.93357092 25.00000000 2 #  13: H
  4.14335016  7.77211416 25.00000001 2 #  14: H
  4.45995624  1.78485396 25.00000000 1 #  15: C
  4.45767262  3.22338596 25.00000001 1 #  16: C
  5.70167459  3.92131048 25.00000001 1 #  17: C
  5.69639688  5.06157588 25.00000001 2 #  18: H
  5.73163837  1.12581183 25.00000000 1 #  19: C
  5.79965894  8.67449806 25.00000000 2 #  20: H
  6.94148281  1.83791955 25.00000000 1 #  21: C
  6.95638390  3.27060764 25.00000000 1 #  22: C
  7.25432843  6.09527385 25.00000000 2 #  23: H
  7.91436962  1.23177088 25.00000000 2 #  24: H
  8.22562876  5.48778336 24.99999999 1 #  25: C
  8.22943192  4.05977688 25.00000000 1 #  26: C
  9.47315047  7.35198278 25.00000000 2 #  27: H
  9.44033794  6.20051301 25.00000001 1 #  28: C
  9.49218789  3.40657967 25.00000000 1 #  29: C
  9.50603739  2.26536252 25.00000000 2 #  30: H
 10.68073984  5.51595628 25.00000001 1 #  31: C
 10.75105365  4.07938028 25.00000001 1 #  32: C
 11.07254875  1.25878763 24.99999999 2 #  33: H
 11.81667097  6.33488300 25.00000001 3 #  34: F
 12.02864122  3.30357287 25.00000000 1 #  35: C
 12.04115293  1.87004499 24.99999999 1 #  36: C
 13.15281519  0.00616603 24.99999999 2 #  37: H
 13.22378499  5.11155729 25.00000000 2 #  38: H
 13.24735969  1.15402059 24.99999999 1 #  39: C
 13.27713225  3.96970879 25.00000001 1 #  40: C
 14.51719811  3.26554492 25.00000000 1 #  41: C
 14.51596616  1.82618059 25.00000000 1 #  42: C
 14.83052370  7.82195267 24.99999999 2 #  43: H
 14.84266368  5.97889326 25.00000000 2 #  44: H
 15.79596011  1.09317436 25.00000000 1 #  45: C
 15.79937014  4.00235120 25.00000000 1 #  46: C
 15.82832300  8.37502529 24.99999999 1 #  47: C
 15.83226786  5.41413265 25.00000000 1 #  48: C
 17.04209669  7.62926749 24.99999999 1 #  49: C
 17.04469252  6.16033170 24.99999999 1 #  50: C
 17.04655709  1.82480892 25.00000000 1 #  51: C
 17.04839538  3.27163016 25.00000000 1 #  52: C
 18.29308091  1.09935476 25.00000000 1 #  53: C
 18.29520127  8.34524923 24.99999999 1 #  54: C
 18.29505581  3.99676763 24.99999999 1 #  55: C
 18.29748616  5.44452919 24.99999999 1 #  56: C
 19.54665044  7.61600729 24.99999998 1 #  57: C
 19.54650938  1.82849319 25.00000000 1 #  58: C
 19.54698704  6.17376890 24.99999999 1 #  59: C
 19.54710335  3.26740987 24.99999999 1 #  60: C
 20.79814681  8.34497198 24.99999999 1 #  61: C
 20.79643546  5.44408005 24.99999999 1 #  62: C
 20.80033923  1.09902623 25.00000000 1 #  63: C
 20.79953792  3.99644820 24.99999999 1 #  64: C
 22.04701485  1.82458998 25.00000000 1 #  65: C
 22.05152437  7.62886123 24.99999999 1 #  66: C
 22.04637496  3.27136828 25.00000001 1 #  67: C
 22.04925583  6.15988655 24.99999999 1 #  68: C
 23.26526688  8.37520847 25.00000001 1 #  69: C
 23.26173827  5.41393368 25.00000000 1 #  70: C
 23.29771271  1.09299635 25.00000001 1 #  71: C
 23.29561430  4.00230530 25.00000001 1 #  72: C
 24.26346783  7.82298498 25.00000001 2 #  73: H
 24.25075570  5.97949108 25.00000001 2 #  74: H
 24.57828192  1.82624293 25.00000002 1 #  75: C
 24.57816357  3.26523319 25.00000003 1 #  76: C
 25.84677173  1.15392709 25.00000002 1 #  77: C
 25.81903610  3.96877262 25.00000001 1 #  78: C
 25.87091208  5.11072943 24.99999995 2 #  79: H
 25.93938822  0.00633234 25.00000001 2 #  80: H
 27.05358448  1.86878056 25.00000000 1 #  81: C
 27.06831494  3.30227377 24.99999995 1 #  82: C
 27.28708526  6.33156619 24.99999848 3 #  83: F
 28.01984284  1.25371277 25.00000001 2 #  84: H
 28.34901053  4.07423963 24.99999990 1 #  85: C
 28.42216541  5.51065985 24.99999958 1 #  86: C
 29.58888039  2.25602943 25.00000009 2 #  87: H
 29.60702400  3.39766469 25.00000006 1 #  88: C
 29.66432567  6.19215843 24.99999991 1 #  89: C
 29.63621391  7.34370612 24.99999986 2 #  90: H
 30.87704305  5.47601241 25.00000008 1 #  91: C
 30.87252307  4.04762667 25.00000005 1 #  92: C
 31.19604433  1.21731811 25.00000000 2 #  93: H
 31.84713014  6.08574529 25.00000011 2 #  94: H
 32.14828582  3.26015846 25.00000003 1 #  95: C
 32.16723691  1.82697691 25.00000001 1 #  96: C
 33.31530733  8.66716698 24.99999999 2 #  97: H
 33.40772546  5.05420900 25.00000001 2 #  98: H
 33.38014826  1.11884715 25.00000000 1 #  99: C
 33.40322173  3.91368013 25.00000001 1 # 100: C
 34.65005315  3.21956516 25.00000000 1 # 101: C
 34.65040903  1.78077155 25.00000000 1 # 102: C
 34.97189888  7.76626287 25.00000000 2 # 103: H
 34.98519469  5.93086849 25.00000001 2 # 104: H
 35.93481525  3.95313038 25.00000000 1 # 105: C
 35.93045232  1.04367972 25.00000000 1 # 106: C
 35.97137850  5.36348224 25.00000000 1 # 107: C
 35.96649094  8.32505073 25.00000000 1 # 108: C
 37.18317467  6.11013645 25.00000000 1 # 109: C
 37.18063809  7.57913673 25.00000000 1 # 110: C
 37.18437679  3.22103964 25.00000000 1 # 111: C
 37.18312399  1.77345812 25.00000000 1 # 112: C
 38.43175994  3.94587384 25.00000000 1 # 113: C
 38.43048437  1.04853779 25.00000000 1 # 114: C
 38.43518358  5.39389616 25.00000000 1 # 115: C
 38.43438765  8.29418486 25.00000000 1 # 116: C
 39.68500296  3.21675888 25.00000000 1 # 117: C
 39.68554130  6.12365430 25.00000000 1 # 118: C
 39.68516338  1.77751684 25.00000000 1 # 119: C
 39.68580634  7.56596109 25.00000000 1 # 120: C
%endblock AtomicCoordinatesAndAtomicSpecies


