# Created by GDIS version 0.90.0
#

SystemLabel      MA2OH_Sites_Removed

NumberOfAtoms    118

NumberOfSpecies  2
%block ChemicalSpeciesLabel
    1    6  C
    2    1  H
%endblock ChemicalSpeciesLabel

LatticeConstant 1.0 Ang
%block LatticeVectors
  40.2591751900    0.0000000000    0.0000000000
   0.0000000000    8.6935000000    0.0000000000
   0.0000000000    0.0000000000   50.0000000000
%endblock LatticeVectors

AtomicCoordinatesFormat NotScaledCartesianAng
%block AtomicCoordinatesAndAtomicSpecies
     0.680795100     5.386984470    25.000000000    1
     0.683770500     3.939289700    25.000000000    1
     0.683462670     8.287018420    25.000000000    1
     0.685601220     1.041394870    25.000000000    1
     1.930039910     3.214555210    25.000000000    1
     1.931575740     1.766979630    25.000000000    1
     1.932294160     6.104063000    25.000000000    1
     1.937108750     7.572747610    25.000000000    1
     3.143978020     5.358524200    25.000000000    1
     3.151171090     8.318109600    25.000000000    1
     3.178596100     3.947426230    25.000000000    1
     3.183559880     1.036572070    25.000000000    1
     4.130106440     5.930201970    25.000000000    2
     4.146579770     7.761172460    25.000000000    2
     4.460134860     1.774888500    25.000000000    1
     4.460404870     3.212243090    25.000000000    1
     5.704744710     3.905713230    25.000000000    1
     5.698292870     5.044557180    25.000000000    2
     5.728234480     1.110785040    25.000000000    1
     5.788997770     8.659967860    25.000000000    2
     6.940437480     1.818794720    25.000000000    1
     6.958082860     3.251479500    25.000000000    1
     7.231684570     6.074467260    25.000000010    2
     7.912915920     1.209925610    25.000000000    2
     8.205920340     5.472328830    25.000000010    1
     8.223965760     4.045121570    25.000000000    1
     9.376179230     7.345969640    25.000000000    2
     9.410430350     6.195077060    25.000000000    1
     9.497689650     3.416609720    25.000000000    1
     9.527680250     2.275528260    25.000000000    2
    10.675343140     5.548934800    24.999999970    1
    10.746334580     4.106610780    24.999999980    1
    11.073073360     1.288688470    24.999999970    2
    12.026533540     3.333017280    24.999999980    1
    12.043997390     1.896354240    24.999999980    1
    13.213736530     0.042616300    24.999999970    2
    13.242596800     5.133434020    25.000000000    2
    13.253823440     1.188334980    24.999999980    1
    13.280463940     3.991258720    24.999999990    1
    14.520983150     3.287622910    24.999999990    1
    14.522061620     1.851714530    24.999999990    1
    14.836486090     7.827655440    24.999999990    2
    14.839812620     5.992044900    24.999999990    2
    15.796990320     1.110471620    24.999999990    1
    15.802792780     4.021543840    24.999999990    1
    15.828618620     8.391443430    24.999999990    1
    15.832508150     5.432605340    24.999999990    1
    17.043082890     7.646493010    24.999999990    1
    17.045216330     6.177756020    24.999999990    1
    17.048445660     1.841058840    25.000000000    1
    17.050155920     3.288587400    25.000000000    1
    18.294265090     1.115283420    25.000000000    1
    18.296306920     8.361316380    25.000000000    1
    18.296381020     4.013462390    25.000000000    1
    18.297871900     5.461104510    25.000000000    1
    19.546654000     7.631269920    25.000000000    1
    19.547099620     1.843581890    25.000000000    1
    19.548023350     6.189294390    25.000000000    1
    19.548089300     3.282883750    25.000000000    1
    20.797182710     8.358640360    25.000000010    1
    20.798081290     5.458774960    25.000000000    1
    20.799307490     1.113148990    25.000000010    1
    20.800592320     4.011330530    25.000000000    1
    22.045311620     1.837572570    25.000000010    1
    22.049336150     7.641400050    25.000000000    1
    22.046685270     3.285078960    25.000000010    1
    22.051551770     6.172693020    25.000000000    1
    23.262231410     8.385741700    25.000000000    1
    23.265196500     5.426687740    25.000000000    1
    23.294666970     1.104081230    25.000000010    1
    23.296374430     4.015276680    25.000000010    1
    24.252376500     7.820665010    25.000000000    2
    24.258945450     5.984978830    25.000000000    2
    24.571293220     1.839872430    25.000000010    1
    24.577011370     3.275530820    25.000000010    1
    25.836237340     1.168639930    25.000000000    1
    25.821798330     3.971368640    25.000000010    1
    25.859170440     5.113135190    25.000000010    2
    25.872783380     0.022742660    25.000000000    2
    27.049048310     1.870603870    25.000000000    1
    27.074060740     3.306479250    25.000000000    1
    28.018030650     1.258611180    25.000000000    2
    28.360457450     4.071016330    25.000000000    1
    28.432564600     5.512974520    25.000000000    1
    29.579133810     2.236722970    25.000000000    2
    29.609569180     3.378476220    25.000000000    1
    29.697634990     6.158569990    25.000000000    1
    29.731887350     7.309089260    24.999999990    2
    30.901014680     5.433700460    25.000000000    1
    30.884331920     4.006323700    25.000000000    1
    31.213597930     1.174498350    25.000000000    2
    31.877229380     6.031987470    25.000000000    2
    32.157184760     3.220879520    25.000000000    1
    32.182933300     1.788822830    25.000000000    1
    33.346012140     8.637139870    25.000000000    2
    33.408849350     5.022486770    25.000000000    2
    33.399067840     1.088539190    25.000000000    1
    33.408079780     3.883557370    25.000000000    1
    34.657739800     3.199521850    25.000000000    1
    34.662887270     1.761796040    25.000000000    1
    34.982242910     7.752723420    25.000000000    2
    34.989737570     5.923773830    25.000000000    2
    35.939289950     3.940832380    25.000000000    1
    35.941739330     1.029589020    25.000000000    1
    35.976252300     5.352480760    25.000000000    1
    35.975584810     8.311875630    25.000000000    1
    37.189547610     6.099160880    25.000000000    1
    37.188826530     7.567934640    25.000000000    1
    37.190484050     3.211018780    25.000000000    1
    37.191525340     1.763337310    25.000000000    1
    38.437237260     3.937076170    25.000000000    1
    38.438495230     1.039629510    25.000000000    1
    38.441929720     5.384564340    25.000000000    1
    38.441542460     8.285136890    25.000000000    1
    39.690426920     3.208705390    25.000000000    1
    39.690975750     6.114965470    25.000000000    1
    39.691374480     1.769366720    25.000000000    1
    39.692197870     7.556919280    25.000000000    1
%endblock AtomicCoordinatesAndAtomicSpecies

PAO.BasisType    split
PAO.BasisSize    DZP
SolutionMethod     diagon
PAO.SplitNorm    0.150000
PAO.EnergyShift    0.020000  Ry
Harris_functional    false
XC.functional    LDA
XC.Authors    PZ
SpinPolarized    false
MeshCutoff    100.000000 Ry
kgrid_cutoff    0.000000 Bohr
ElectronicTemperature    300.000000 K
MaxSCFIterations    50
DM.NumberPulay    0
DM.MixingWeight    0.250000
MD.TypeOfRun    CG
MD.VariableCell    false
MD.NumCGsteps    10844
MD.MaxCGDispl    0.200000 Bohr
MD.PreconditionVariableCell    5.000000 Ang
MD.MaxStressTol    1.000000 GPa

%block MD.TargetStress
-1.000000 -1.000000 -1.000000 0.000000 0.000000 0.000000
%endblock MD.TargetStress

MD.MaxForceTol    0.040000 eV/Ang
MD.InitialTimeStep    1
MD.FinalTimeStep    1
MD.LengthTimeStep    1 fs
MD.InitialTemperature    0.000000 K
MD.Quench    false
MD.TargetTemperature    0.000000 K
MD.NoseMass    100.000000 Ry*fs**2
MD.ParrinelloRahmanMass    100.000000 Ry*fs**2
MD.AnnealOption    TemperatureandPressure
MD.TauRelax    100.000000 fs
MD.BulkModulus    100.000000 Ry/Bohr**3
MD.TargetPressure    0.000000 GPa
MD.FCDispl    0.040000 Bohr
MD.FCfirst    1
MD.FClast    0

UseSaveData		false
WriteCoorInital    true
WriteCoorStep    false
WriteForces		false
WriteKpoints		false
WriteEigenvalues		false
WriteKbands		false
WriteBands		false
WriteWaveFunctions		false
WriteMullikenPop		0
WriteDM		true
WriteCoorXmol		false
WriteCoorCerius		false
WriteMDXmol		false
WriteMDhistory		true
