LatticeConstant 1.0 Ang
%block LatticeVectors
 40.25917519 0.00000000 0.00000000
 0.00000000 8.69350000 0.00000000
 0.00000000 0.00000000 50.00000000
%endblock LatticeVectors

NumberOfSpecies 3
%block ChemicalSpeciesLabel
 1 6 C
 2 1 H
 3 8 O
%endblock ChemicalSpeciesLabel

NumberOfAtoms 120
AtomicCoordinatesFormat Ang
%block AtomicCoordinatesAndAtomicSpecies
  0.66036760  5.59138202 25.00000045 1 #   1: C
  0.66600698  4.14402879 25.00000015 1 #   2: C
  0.65736968  8.49302746 25.00000040 1 #   3: C
  0.66199804  1.24793188 25.00000028 1 #   4: C
  1.91684173  3.41973706 24.99999991 1 #   5: C
  1.90878866  1.97303063 25.00000012 1 #   6: C
  1.91539707  6.30370682 25.00000029 1 #   7: C
  1.91088419  7.77457119 25.00000018 1 #   8: C
  3.13038403  5.55887946 25.00000005 1 #   9: C
  3.12007641  8.51847577 24.99999994 1 #  10: C
  3.17425454  4.14518199 24.99999982 1 #  11: C
  3.15791908  1.24067568 24.99999982 1 #  12: C
  4.12025307  6.12541218 24.99999990 2 #  13: H
  4.11028835  7.95612208 24.99999973 2 #  14: H
  4.43666798  1.96186348 24.99999975 1 #  15: C
  4.46339856  3.40465365 24.99999987 1 #  16: C
  5.72887973  4.06918017 24.99999996 1 #  17: C
  5.74931787  5.21145545 25.00000007 2 #  18: H
  5.69059260  1.26650890 24.99999994 1 #  19: C
  5.73346700  8.81546306 24.99999994 2 #  20: H
  6.91475815  1.94031183 24.99999998 1 #  21: C
  6.98130009  3.37858803 24.99999997 1 #  22: C
  7.41896264  6.16842077 24.99999994 2 #  23: H
  7.86766240  1.30330979 25.00000000 2 #  24: H
  8.37075206  5.52633274 25.00000001 1 #  25: C
  8.28985077  4.07981244 25.00000002 1 #  26: C
  9.65895112  7.32802165 24.99999998 2 #  27: H
  9.59618765  6.17764929 25.00000002 1 #  28: C
  9.53106416  3.36751554 25.00000005 1 #  29: C
  9.50429568  2.22324486 25.00000003 2 #  30: H
 10.90130717  5.48300121 25.00000000 1 #  31: C
 10.81328950  3.97430495 25.00000003 1 #  32: C
 11.06309727  1.09252926 25.00000008 2 #  33: H
 11.97837380  6.19413415 24.99999998 3 #  34: O
 12.03873995  3.13810462 25.00000001 1 #  35: C
 12.03913018  1.69624081 25.00000002 1 #  36: C
 13.10389284 -0.18914135 24.99999998 2 #  37: H
 13.15104098  4.95917089 24.99999998 2 #  38: H
 13.23482951  0.96151722 24.99999997 1 #  39: C
 13.29694377  3.79930384 24.99999997 1 #  40: C
 14.52387968  3.07628427 24.99999991 1 #  41: C
 14.51597124  1.62963306 24.99999991 1 #  42: C
 14.83643016  7.62383159 24.99999993 2 #  43: H
 14.83488911  5.76187654 24.99999978 2 #  44: H
 15.79870901  0.90499134 24.99999986 1 #  45: C
 15.81132644  3.80271330 24.99999984 1 #  46: C
 15.83669676  8.17834637 24.99999986 1 #  47: C
 15.84160130  5.22032389 24.99999980 1 #  48: C
 17.05091349  7.43941904 24.99999982 1 #  49: C
 17.05161026  5.96559018 24.99999981 1 #  50: C
 17.05663398  1.63218251 24.99999982 1 #  51: C
 17.06077386  3.07815687 24.99999981 1 #  52: C
 18.30652801  0.90948190 24.99999982 1 #  53: C
 18.30986305  8.15488928 24.99999982 1 #  54: C
 18.30809500  3.80519074 24.99999981 1 #  55: C
 18.31000319  5.25360962 24.99999982 1 #  56: C
 19.56256242  7.43184397 24.99999986 1 #  57: C
 19.56214775  1.63631980 24.99999984 1 #  58: C
 19.56054452  5.98056399 24.99999987 1 #  59: C
 19.56072466  3.07929533 24.99999985 1 #  60: C
 20.81487968  8.15635846 24.99999992 1 #  61: C
 20.81058206  5.25527334 24.99999994 1 #  62: C
 20.81859599  0.91098409 24.99999992 1 #  63: C
 20.81187631  3.80694602 24.99999993 1 #  64: C
 22.06872616  1.63381020 25.00000000 1 #  65: C
 22.07454280  7.44361695 25.00000000 1 #  66: C
 22.05862966  3.08033150 25.00000001 1 #  67: C
 22.06812890  5.96989665 25.00000002 1 #  68: C
 23.29041783  8.18255122 25.00000006 1 #  69: C
 23.27596049  5.22567994 25.00000012 1 #  70: C
 23.33000572  0.91060783 25.00000006 1 #  71: C
 23.30445216  3.80884876 25.00000010 1 #  72: C
 24.29216992  7.62926358 25.00000011 2 #  73: H
 24.27850041  5.77193259 25.00000022 2 #  74: H
 24.61093838  1.64224274 25.00000010 1 #  75: C
 24.59272235  3.08930443 25.00000012 1 #  76: C
 25.90081755  0.98749801 25.00000007 1 #  77: C
 25.80949581  3.82854146 25.00000011 1 #  78: C
 25.94306387  4.98897628 25.00000009 2 #  79: H
 26.04608148 -0.16306380 25.00000001 2 #  80: H
 27.08724108  1.73891411 25.00000006 1 #  81: C
 27.07186285  3.18097758 25.00000010 1 #  82: C
 27.10937592  6.24807823 25.00000001 3 #  83: O
 28.07330031  1.15146654 25.00000001 2 #  84: H
 28.28466318  4.03294627 25.00000006 1 #  85: C
 28.19035650  5.54143897 25.00000002 1 #  86: C
 29.59626758  2.28822917 25.00000017 2 #  87: H
 29.56687573  3.43201185 25.00000003 1 #  88: C
 29.49481197  6.23931842 24.99999999 1 #  89: C
 29.42746297  7.38999381 24.99999993 2 #  90: H
 30.72386258  5.59188880 24.99999993 1 #  91: C
 30.80580392  4.14399026 24.99999995 1 #  92: C
 31.20249065  1.35550913 24.99999971 2 #  93: H
 31.67422815  6.23874384 24.99999993 2 #  94: H
 32.10470336  3.42670843 25.00000000 1 #  95: C
 32.15850774  1.98686328 24.99999998 1 #  96: C
 33.31962749  8.84872385 25.00000019 2 #  97: H
 33.34739973  5.24405113 24.99999989 2 #  98: H
 33.37581442  1.29948387 25.00000019 1 #  99: C
 33.36242759  4.10165023 24.99999996 1 # 100: C
 34.61961437  3.42200804 25.00000002 1 # 101: C
 34.63796723  1.97903296 25.00000025 1 # 102: C
 34.95715565  7.96746495 24.99999996 2 # 103: H
 34.96065462  6.13235948 24.99999998 2 # 104: H
 35.90887928  4.15379882 25.00000029 1 # 105: C
 35.91456518  1.24872283 25.00000035 1 # 106: C
 35.95084529  5.56704700 25.00000000 1 # 107: C
 35.95141937  8.52565581 25.00000033 1 # 108: C
 37.16413972  6.30973821 25.00000044 1 # 109: C
 37.16300256  7.78103794 25.00000067 1 # 110: C
 37.16268065  3.42442001 25.00000039 1 # 111: C
 37.16745346  1.97721739 25.00000064 1 # 112: C
 38.41387978  4.14598053 25.00000051 1 # 113: C
 38.41364450  1.25037219 25.00000077 1 # 114: C
 38.41837863  5.59368079 25.00000033 1 # 115: C
 38.41814714  8.49612667 25.00000061 1 # 116: C
 39.66899776  3.41777916 25.00000039 1 # 117: C
 39.66901525  6.32091164 25.00000074 1 # 118: C
 39.66816676  1.97683554 25.00000030 1 # 119: C
 39.66718158  7.76678484 25.00000077 1 # 120: C
%endblock AtomicCoordinatesAndAtomicSpecies


