LatticeConstant 1.0 Ang
%block LatticeVectors
 40.25917519 0.00000000 0.00000000
 0.00000000 8.69350000 0.00000000
 0.00000000 0.00000000 50.00000000
%endblock LatticeVectors

NumberOfSpecies 3
%block ChemicalSpeciesLabel
 1 1 H
 2 6 C
 3 8 O
%endblock ChemicalSpeciesLabel

NumberOfAtoms 122
AtomicCoordinatesFormat Ang
%block AtomicCoordinatesAndAtomicSpecies
 31.66680728  7.24701058 25.00000004 1 #   1: H
 11.46219151  7.31121095 25.00000001 1 #   2: H
  0.67468747  5.38211720 25.00000000 2 #   3: C
  0.67825940  3.93429922 25.00000000 2 #   4: C
  0.67678791  8.28269126 25.00000001 2 #   5: C
  0.67968967  1.03667406 25.00000000 2 #   6: C
  1.92480652  3.20977514 25.00000000 2 #   7: C
  1.92587942  1.76237014 25.00000000 2 #   8: C
  1.92567760  6.09946630 25.00000000 2 #   9: C
  1.93037935  7.56802897 25.00000001 2 #  10: C
  3.13706730  5.35369923 25.00000000 2 #  11: C
  3.14498689  8.31363387 25.00000000 2 #  12: C
  3.17283249  3.94310779 25.00000000 2 #  13: C
  3.17786108  1.03234123 25.00000000 2 #  14: C
  4.12171820  5.92488400 25.00000000 1 #  15: H
  4.14008304  7.75660518 25.00000000 1 #  16: H
  4.45605492  1.77024013 25.00000000 2 #  17: C
  4.45537994  3.20832006 25.00000000 2 #  18: C
  5.69887028  3.90369366 25.00000000 2 #  19: C
  5.69301926  5.04259320 25.00000000 1 #  20: H
  5.72500858  1.10830600 25.00000000 2 #  21: C
  5.78769551  8.65674290 25.00000000 1 #  22: H
  6.93633615  1.81823416 25.00000000 2 #  23: C
  6.95372022  3.25147026 24.99999999 2 #  24: C
  7.23100449  6.07500922 24.99999999 1 #  25: H
  7.90956352  1.21169530 25.00000000 1 #  26: H
  8.20493429  5.47168975 25.00000000 2 #  27: C
  8.22143101  4.04477718 24.99999999 2 #  28: C
  9.37522067  7.34729110 25.00000001 1 #  29: H
  9.40958352  6.19603864 25.00000001 2 #  30: C
  9.49519463  3.41705052 25.00000000 2 #  31: C
  9.52353961  2.27578528 25.00000000 1 #  32: H
 10.67411575  5.54934994 25.00000001 2 #  33: C
 10.74366413  4.10730029 25.00000001 2 #  34: C
 11.06994507  1.29147356 25.00000000 1 #  35: H
 11.82637014  6.34808453 25.00000003 3 #  36: O
 12.02361245  3.33359783 25.00000000 2 #  37: C
 12.04188957  1.89731172 25.00000000 2 #  38: C
 13.21061284  0.04393787 24.99999999 1 #  39: H
 13.24010369  5.13463620 25.00000000 1 #  40: H
 13.25159900  1.18963267 24.99999999 2 #  41: C
 13.27760591  3.99308181 25.00000000 2 #  42: C
 14.51791193  3.28939697 25.00000000 2 #  43: C
 14.51907936  1.85366051 25.00000000 2 #  44: C
 14.83199529  7.83133606 25.00000000 1 #  45: H
 14.83506621  5.99341455 25.00000000 1 #  46: H
 15.79395431  1.11276939 25.00000000 2 #  47: C
 15.79958615  4.02376514 25.00000000 2 #  48: C
 15.82421716  8.39396076 25.00000000 2 #  49: C
 15.82916417  5.43479208 25.00000000 2 #  50: C
 17.03861398  7.64903980 25.00000000 2 #  51: C
 17.04123422  6.18037284 25.00000000 2 #  52: C
 17.04514602  1.84391759 25.00000000 2 #  53: C
 17.04755033  3.29121614 25.00000000 2 #  54: C
 18.29090685  1.11822692 25.00000000 2 #  55: C
 18.29228812  8.36420131 25.00000000 2 #  56: C
 18.29344040  4.01651763 25.00000000 2 #  57: C
 18.29414481  5.46394919 25.00000000 2 #  58: C
 19.54275238  7.63432962 25.00000000 2 #  59: C
 19.54403094  1.84719887 25.00000000 2 #  60: C
 19.54402679  6.19245331 25.00000000 2 #  61: C
 19.54613446  3.28622976 25.00000000 2 #  62: C
 20.79277900  8.36307330 25.00000000 2 #  63: C
 20.79462167  5.46260489 25.00000000 2 #  64: C
 20.79626417  1.11754705 25.00000000 2 #  65: C
 20.79939723  4.01523141 25.00000000 2 #  66: C
 22.04245815  1.84269567 25.00000000 2 #  67: C
 22.04526113  7.64561351 25.00000000 2 #  68: C
 22.04690003  3.29000554 25.00000000 2 #  69: C
 22.04691587  6.17688838 25.00000000 2 #  70: C
 23.25720378  8.39114885 25.00000000 2 #  71: C
 23.26132846  5.43099072 25.00000000 2 #  72: C
 23.29066344  1.10884553 25.00000001 2 #  73: C
 23.29933516  4.01942579 25.00000000 2 #  74: C
 24.25000620  7.83256037 25.00000000 1 #  75: H
 24.24807384  6.00101740 25.00000000 1 #  76: H
 24.57089871  1.83852468 25.00000000 2 #  77: C
 24.58179495  3.27700418 25.00000000 2 #  78: C
 25.82961268  1.15816369 25.00000000 2 #  79: C
 25.83686054  3.95486181 25.00000000 2 #  80: C
 25.84443369  5.09514872 25.00000001 1 #  81: H
 25.87675778  0.01314896 25.00000001 1 #  82: H
 27.04893669  1.85007818 25.00000000 2 #  83: C
 27.08363940  3.28195984 25.00000001 2 #  84: C
 27.41735476  6.08629206 25.00000000 1 #  85: H
 28.01424817  1.23077556 25.00000000 1 #  86: H
 28.37126920  4.04326419 25.00000001 2 #  87: C
 28.38276627  5.46908418 25.00000000 2 #  88: C
 29.64553524  2.24550866 25.00000001 1 #  89: H
 29.63329968  3.38784089 25.00000000 2 #  90: C
 29.60184784  6.16916502 24.99999999 2 #  91: C
 29.59159098  7.32017660 24.99999999 1 #  92: H
 30.85314477  5.49745330 24.99999998 2 #  93: C
 30.89573228  4.05290639 24.99999998 2 #  94: C
 31.20159142  1.21898846 25.00000000 1 #  95: H
 32.01789707  6.27857941 25.00000001 3 #  96: O
 32.16509314  3.25866019 25.00000000 2 #  97: C
 32.17665948  1.82132656 25.00000001 2 #  98: C
 33.34845646  8.65695499 25.00000000 1 #  99: H
 33.39635079  5.04980232 25.00000001 1 # 100: H
 33.38644720  1.10966603 25.00000001 2 # 101: C
 33.42335287  3.90911597 25.00000001 2 # 102: C
 34.66042799  3.20254831 25.00000001 2 # 103: C
 34.65783739  1.76739256 25.00000000 2 # 104: C
 34.97613329  7.74285559 25.00000000 1 # 105: H
 34.97844667  5.90937952 25.00000000 1 # 106: H
 35.94107973  3.93800655 25.00000000 2 # 107: C
 35.93362444  1.02655377 25.00000000 2 # 108: C
 35.97078654  5.34908491 25.00000000 2 # 109: C
 35.96652057  8.30805777 25.00000000 2 # 110: C
 37.18248292  6.09524754 25.00000000 2 # 111: C
 37.18118783  7.56401556 25.00000000 2 # 112: C
 37.18840560  3.20610783 25.00000000 2 # 113: C
 37.18523523  1.75868979 25.00000000 2 # 114: C
 38.43347623  3.93257170 25.00000000 2 # 115: C
 38.43222202  1.03450223 25.00000000 2 # 116: C
 38.43527107  5.38018138 25.00000000 2 # 117: C
 38.43455488  8.28060329 25.00000000 2 # 118: C
 39.68583519  3.20356868 25.00000000 2 # 119: C
 39.68431169  6.11068906 25.00000000 2 # 120: C
 39.68557643  1.76452847 25.00000000 2 # 121: C
 39.68540788  7.55253685 25.00000000 2 # 122: C
%endblock AtomicCoordinatesAndAtomicSpecies


