# Created by GDIS version 0.90.0
#

SystemLabel      MS2OH_Sites_Removed

NumberOfAtoms    118

NumberOfSpecies  2
%block ChemicalSpeciesLabel
    1    6  C
    2    1  H
%endblock ChemicalSpeciesLabel

LatticeConstant 1.0 Ang
%block LatticeVectors
  40.2591751900    0.0000000000    0.0000000000
   0.0000000000    8.6935000000    0.0000000000
   0.0000000000    0.0000000000   50.0000000000
%endblock LatticeVectors

AtomicCoordinatesFormat NotScaledCartesianAng
%block AtomicCoordinatesAndAtomicSpecies
     0.674687470     5.382117200    25.000000000    1
     0.678259400     3.934299220    25.000000000    1
     0.676787910     8.282691260    25.000000010    1
     0.679689670     1.036674060    25.000000000    1
     1.924806520     3.209775140    25.000000000    1
     1.925879420     1.762370140    25.000000000    1
     1.925677600     6.099466300    25.000000000    1
     1.930379350     7.568028970    25.000000010    1
     3.137067300     5.353699230    25.000000000    1
     3.144986890     8.313633870    25.000000000    1
     3.172832490     3.943107790    25.000000000    1
     3.177861080     1.032341230    25.000000000    1
     4.121718200     5.924884000    25.000000000    2
     4.140083040     7.756605180    25.000000000    2
     4.456054920     1.770240130    25.000000000    1
     4.455379940     3.208320060    25.000000000    1
     5.698870280     3.903693660    25.000000000    1
     5.693019260     5.042593200    25.000000000    2
     5.725008580     1.108306000    25.000000000    1
     5.787695510     8.656742900    25.000000000    2
     6.936336150     1.818234160    25.000000000    1
     6.953720220     3.251470260    24.999999990    1
     7.231004490     6.075009220    24.999999990    2
     7.909563520     1.211695300    25.000000000    2
     8.204934290     5.471689750    25.000000000    1
     8.221431010     4.044777180    24.999999990    1
     9.375220670     7.347291100    25.000000010    2
     9.409583520     6.196038640    25.000000010    1
     9.495194630     3.417050520    25.000000000    1
     9.523539610     2.275785280    25.000000000    2
    10.674115750     5.549349940    25.000000010    1
    10.743664130     4.107300290    25.000000010    1
    11.069945070     1.291473560    25.000000000    2
    12.023612450     3.333597830    25.000000000    1
    12.041889570     1.897311720    25.000000000    1
    13.210612840     0.043937870    24.999999990    2
    13.240103690     5.134636200    25.000000000    2
    13.251599000     1.189632670    24.999999990    1
    13.277605910     3.993081810    25.000000000    1
    14.517911930     3.289396970    25.000000000    1
    14.519079360     1.853660510    25.000000000    1
    14.831995290     7.831336060    25.000000000    2
    14.835066210     5.993414550    25.000000000    2
    15.793954310     1.112769390    25.000000000    1
    15.799586150     4.023765140    25.000000000    1
    15.824217160     8.393960760    25.000000000    1
    15.829164170     5.434792080    25.000000000    1
    17.038613980     7.649039800    25.000000000    1
    17.041234220     6.180372840    25.000000000    1
    17.045146020     1.843917590    25.000000000    1
    17.047550330     3.291216140    25.000000000    1
    18.290906850     1.118226920    25.000000000    1
    18.292288120     8.364201310    25.000000000    1
    18.293440400     4.016517630    25.000000000    1
    18.294144810     5.463949190    25.000000000    1
    19.542752380     7.634329620    25.000000000    1
    19.544030940     1.847198870    25.000000000    1
    19.544026790     6.192453310    25.000000000    1
    19.546134460     3.286229760    25.000000000    1
    20.792779000     8.363073300    25.000000000    1
    20.794621670     5.462604890    25.000000000    1
    20.796264170     1.117547050    25.000000000    1
    20.799397230     4.015231410    25.000000000    1
    22.042458150     1.842695670    25.000000000    1
    22.045261130     7.645613510    25.000000000    1
    22.046900030     3.290005540    25.000000000    1
    22.046915870     6.176888380    25.000000000    1
    23.257203780     8.391148850    25.000000000    1
    23.261328460     5.430990720    25.000000000    1
    23.290663440     1.108845530    25.000000010    1
    23.299335160     4.019425790    25.000000000    1
    24.250006200     7.832560370    25.000000000    2
    24.248073840     6.001017400    25.000000000    2
    24.570898710     1.838524680    25.000000000    1
    24.581794950     3.277004180    25.000000000    1
    25.829612680     1.158163690    25.000000000    1
    25.836860540     3.954861810    25.000000000    1
    25.844433690     5.095148720    25.000000010    2
    25.876757780     0.013148960    25.000000010    2
    27.048936690     1.850078180    25.000000000    1
    27.083639400     3.281959840    25.000000010    1
    27.417354760     6.086292060    25.000000000    2
    28.014248170     1.230775560    25.000000000    2
    28.371269200     4.043264190    25.000000010    1
    28.382766270     5.469084180    25.000000000    1
    29.645535240     2.245508660    25.000000010    2
    29.633299680     3.387840890    25.000000000    1
    29.601847840     6.169165020    24.999999990    1
    29.591590980     7.320176600    24.999999990    2
    30.853144770     5.497453300    24.999999980    1
    30.895732280     4.052906390    24.999999980    1
    31.201591420     1.218988460    25.000000000    2
    32.165093140     3.258660190    25.000000000    1
    32.176659480     1.821326560    25.000000010    1
    33.348456460     8.656954990    25.000000000    2
    33.396350790     5.049802320    25.000000010    2
    33.386447200     1.109666030    25.000000010    1
    33.423352870     3.909115970    25.000000010    1
    34.660427990     3.202548310    25.000000010    1
    34.657837390     1.767392560    25.000000000    1
    34.976133290     7.742855590    25.000000000    2
    34.978446670     5.909379520    25.000000000    2
    35.941079730     3.938006550    25.000000000    1
    35.933624440     1.026553770    25.000000000    1
    35.970786540     5.349084910    25.000000000    1
    35.966520570     8.308057770    25.000000000    1
    37.182482920     6.095247540    25.000000000    1
    37.181187830     7.564015560    25.000000000    1
    37.188405600     3.206107830    25.000000000    1
    37.185235230     1.758689790    25.000000000    1
    38.433476230     3.932571700    25.000000000    1
    38.432222020     1.034502230    25.000000000    1
    38.435271070     5.380181380    25.000000000    1
    38.434554880     8.280603290    25.000000000    1
    39.685835190     3.203568680    25.000000000    1
    39.684311690     6.110689060    25.000000000    1
    39.685576430     1.764528470    25.000000000    1
    39.685407880     7.552536850    25.000000000    1
%endblock AtomicCoordinatesAndAtomicSpecies

PAO.BasisType    split
PAO.BasisSize    DZP
SolutionMethod     diagon
PAO.SplitNorm    0.150000
PAO.EnergyShift    0.020000  Ry
Harris_functional    false
XC.functional    LDA
XC.Authors    PZ
SpinPolarized    false
MeshCutoff    100.000000 Ry
kgrid_cutoff    0.000000 Bohr
ElectronicTemperature    300.000000 K
MaxSCFIterations    50
DM.NumberPulay    0
DM.MixingWeight    0.250000
MD.TypeOfRun    CG
MD.VariableCell    false
MD.NumCGsteps    10844
MD.MaxCGDispl    0.200000 Bohr
MD.PreconditionVariableCell    5.000000 Ang
MD.MaxStressTol    1.000000 GPa

%block MD.TargetStress
-1.000000 -1.000000 -1.000000 0.000000 0.000000 0.000000
%endblock MD.TargetStress

MD.MaxForceTol    0.040000 eV/Ang
MD.InitialTimeStep    1
MD.FinalTimeStep    1
MD.LengthTimeStep    1 fs
MD.InitialTemperature    0.000000 K
MD.Quench    false
MD.TargetTemperature    0.000000 K
MD.NoseMass    100.000000 Ry*fs**2
MD.ParrinelloRahmanMass    100.000000 Ry*fs**2
MD.AnnealOption    TemperatureandPressure
MD.TauRelax    100.000000 fs
MD.BulkModulus    100.000000 Ry/Bohr**3
MD.TargetPressure    0.000000 GPa
MD.FCDispl    0.040000 Bohr
MD.FCfirst    1
MD.FClast    0

UseSaveData		false
WriteCoorInital    true
WriteCoorStep    false
WriteForces		false
WriteKpoints		false
WriteEigenvalues		false
WriteKbands		false
WriteBands		false
WriteWaveFunctions		false
WriteMullikenPop		0
WriteDM		true
WriteCoorXmol		false
WriteCoorCerius		false
WriteMDXmol		false
WriteMDhistory		true
