LatticeConstant 1.0 Ang
%block LatticeVectors
 40.25917519 0.00000000 0.00000000
 0.00000000 8.69350000 0.00000000
 0.00000000 0.00000000 50.00000000
%endblock LatticeVectors

NumberOfSpecies 3
%block ChemicalSpeciesLabel
 1 6 C
 2 1 H
 3 8 O
%endblock ChemicalSpeciesLabel

NumberOfAtoms 120
AtomicCoordinatesFormat Ang
%block AtomicCoordinatesAndAtomicSpecies
  0.67153138  5.39316522 25.00000000 1 #   1: C
  0.67739053  3.94518964 25.00000000 1 #   2: C
  0.67562388  8.29506815 25.00000000 1 #   3: C
  0.68064617  1.04948263 25.00000000 1 #   4: C
  1.92762797  3.22292198 25.00000000 1 #   5: C
  1.92884396  1.77560220 25.00000000 1 #   6: C
  1.92623273  6.11027272 25.00000000 1 #   7: C
  1.93349243  7.58228334 25.00000000 1 #   8: C
  3.13675292  5.36827852 25.00000000 1 #   9: C
  3.14686722  8.32634286 25.00000000 1 #  10: C
  3.17658044  3.95447504 25.00000000 1 #  11: C
  3.18553774  1.05153469 25.00000000 1 #  12: C
  4.12422496  5.93587285 25.00000000 2 #  13: H
  4.14399009  7.77057191 25.00000000 2 #  14: H
  4.46172686  1.78591863 25.00000000 1 #  15: C
  4.46593527  3.22873555 25.00000000 1 #  16: C
  5.71035157  3.92471823 25.00000000 1 #  17: C
  5.71270303  5.06500842 25.00000000 2 #  18: H
  5.73679435  1.12573461 25.00000000 1 #  19: C
  5.80726243  8.67447942 25.00000000 2 #  20: H
  6.94679527  1.83218172 25.00000000 1 #  21: C
  6.97555716  3.27359392 25.00000000 1 #  22: C
  7.27244434  6.10140858 25.00000000 2 #  23: H
  7.91856793  1.22162008 25.00000000 2 #  24: H
  8.24883468  5.49916589 25.00000000 1 #  25: C
  8.24067745  4.04798395 25.00000000 1 #  26: C
  9.44444168  7.36543738 25.00000000 2 #  27: H
  9.43781177  6.21357626 25.00000000 1 #  28: C
  9.51386672  3.40349413 25.00000000 1 #  29: C
  9.53788779  2.26108509 25.00000000 2 #  30: H
 10.77696383  5.58508416 25.00000000 1 #  31: C
 10.75984537  4.07719001 25.00000000 1 #  32: C
 11.08216139  1.22093204 24.99999999 2 #  33: H
 11.82337851  6.33755030 25.00000000 3 #  34: O
 12.01580800  3.29416306 24.99999999 1 #  35: C
 12.03783523  1.85375235 24.99999999 1 #  36: C
 13.13979270 -0.00458690 24.99999999 2 #  37: H
 13.08891881  5.14554648 25.00000000 2 #  38: H
 13.24453063  1.14569813 24.99999999 1 #  39: C
 13.25914365  3.98790534 25.00000000 1 #  40: C
 14.50014859  3.28620374 24.99999999 1 #  41: C
 14.50756312  1.83962980 24.99999999 1 #  42: C
 14.82312620  7.83904973 25.00000000 2 #  43: H
 14.80698640  5.97556737 25.00000000 2 #  44: H
 15.78773145  1.11945638 25.00000000 1 #  45: C
 15.78608620  4.01971839 24.99999999 1 #  46: C
 15.82084309  8.39498084 25.00000000 1 #  47: C
 15.81506229  5.43639218 24.99999999 1 #  48: C
 17.03210713  7.65414574 25.00000000 1 #  49: C
 17.02773240  6.18201584 24.99999999 1 #  50: C
 17.04009083  1.84980295 25.00000000 1 #  51: C
 17.03948497  3.29643508 25.00000000 1 #  52: C
 18.28754529  1.12682848 25.00000000 1 #  53: C
 18.28909320  8.37156808 25.00000000 1 #  54: C
 18.28761441  4.02306820 25.00000000 1 #  55: C
 18.28726084  5.47091934 25.00000000 1 #  56: C
 19.53999638  7.64793299 25.00000000 1 #  57: C
 19.54133893  1.85590244 25.00000000 1 #  58: C
 19.53820956  6.19965907 25.00000000 1 #  59: C
 19.54249931  3.29799951 25.00000000 1 #  60: C
 20.79082752  8.37558255 25.00000000 1 #  61: C
 20.79051574  5.47330442 25.00000000 1 #  62: C
 20.79626594  1.13049256 25.00000000 1 #  63: C
 20.79757982  4.02565748 25.00000000 1 #  64: C
 22.04442142  1.85558064 25.00000000 1 #  65: C
 22.04739039  7.66004458 25.00000000 1 #  66: C
 22.04892554  3.30265236 25.00000000 1 #  67: C
 22.04656990  6.18769811 25.00000000 1 #  68: C
 23.25862511  8.40338446 25.00000000 1 #  69: C
 23.25968558  5.44511046 25.00000000 1 #  70: C
 23.29748100  1.12766384 25.00000000 1 #  71: C
 23.30262117  4.03056083 25.00000000 1 #  72: C
 24.25113833  7.84225579 25.00000000 2 #  73: H
 24.24950319  6.01065825 25.00000000 2 #  74: H
 24.57573743  1.85427441 25.00000000 1 #  75: C
 24.59285644  3.29766842 25.00000001 1 #  76: C
 25.83933463  1.17358370 25.00000000 1 #  77: C
 25.84947665  3.97557215 25.00000001 1 #  78: C
 25.86758481  5.11721223 25.00000002 2 #  79: H
 25.89136146  0.02837819 25.00000000 2 #  80: H
 27.05777571  1.86131032 25.00000000 1 #  81: C
 27.10642513  3.30149377 25.00000000 1 #  82: C
 27.46931710  6.10904805 25.00000000 2 #  83: H
 28.02082394  1.23741819 25.00000000 2 #  84: H
 28.39347994  4.04032065 25.00000000 1 #  85: C
 28.43452126  5.48933569 25.00000000 1 #  86: C
 29.65782204  2.22353188 25.00000000 2 #  87: H
 29.65384547  3.36718997 25.00000000 1 #  88: C
 29.63789761  6.17875450 25.00000000 1 #  89: C
 29.66611506  7.33000008 25.00000000 2 #  90: H
 30.96301614  5.52439030 25.00000001 1 #  91: C
 30.91456484  4.01546192 25.00000000 1 #  92: C
 31.21563582  1.14489538 25.00000000 2 #  93: H
 32.02056905  6.26267787 25.00000001 3 #  94: O
 32.15915286  3.21302366 25.00000000 1 #  95: C
 32.17579298  1.77228846 25.00000000 1 #  96: C
 33.27383687  8.60329351 25.00000000 2 #  97: H
 33.24279047  5.05794140 25.00000000 2 #  98: H
 33.38178729  1.06037300 25.00000000 1 #  99: C
 33.40568861  3.89951908 25.00000000 1 # 100: C
 34.64384359  3.19691482 25.00000000 1 # 101: C
 34.64792727  1.75074938 25.00000000 1 # 102: C
 34.96540424  7.75220029 25.00000000 2 # 103: H
 34.94759219  5.88829269 25.00000000 2 # 104: H
 35.92853870  3.93318582 25.00000000 1 # 105: C
 35.92924256  1.03235695 25.00000000 1 # 106: C
 35.95633295  5.35039611 25.00000000 1 # 107: C
 35.96326615  8.30812464 25.00000000 1 # 108: C
 37.16913536  6.09690856 25.00000000 1 # 109: C
 37.17538142  7.56903771 25.00000000 1 # 110: C
 37.18147736  3.21101010 25.00000000 1 # 111: C
 37.18177364  1.76432101 25.00000000 1 # 112: C
 38.42875288  3.93910765 25.00000000 1 # 113: C
 38.43001866  1.04283040 25.00000000 1 # 114: C
 38.42877352  5.38713506 25.00000000 1 # 115: C
 38.43212836  8.28792168 25.00000000 1 # 116: C
 39.68335278  3.21547303 25.00000000 1 # 117: C
 39.67893598  6.11770380 25.00000000 1 # 118: C
 39.68374078  1.77331452 25.00000000 1 # 119: C
 39.68340326  7.56595908 25.00000000 1 # 120: C
%endblock AtomicCoordinatesAndAtomicSpecies


