LatticeConstant 1.0 Ang
%block LatticeVectors
 40.25917519 0.00000000 0.00000000
 0.00000000 8.69350000 0.00000000
 0.00000000 0.00000000 50.00000000
%endblock LatticeVectors

NumberOfAtoms 120
AtomicCoordinatesFormat Ang
%block AtomicCoordinatesAndAtomicSpecies
  0.68258783  5.37638046 25.00000000 1 #   1: C
  0.68496931  3.92741721 25.00000000 1 #   2: C
  0.68455442  8.27746364 25.00000000 1 #   3: C
  0.68960779  1.03311993 25.00000000 1 #   4: C
  1.93612858  3.20302956 25.00000000 1 #   5: C
  1.94230604  1.75611073 25.00000000 1 #   6: C
  1.94207585  6.08982316 25.00000000 1 #   7: C
  1.94442609  7.56326395 25.00000000 1 #   8: C
  3.15582219  5.34498638 25.00000000 1 #   9: C
  3.16110710  8.30330608 25.00000000 1 #  10: C
  3.18906647  3.92956014 25.00000000 1 #  11: C
  3.20429492  1.02929881 25.00000000 1 #  12: C
  4.16270641  5.88647307 25.00000000 2 #  13: H
  4.15993924  7.74650719 25.00000000 2 #  14: H
  4.49095931  1.75390679 25.00000000 1 #  15: C
  4.48505262  3.20481757 25.00000000 1 #  16: C
  5.71556740  3.92820520 25.00000000 1 #  17: C
  5.89868128  5.09716812 25.00000000 2 #  18: H
  5.77455693  1.07925094 25.00000000 1 #  19: C
  5.90750345  8.62044110 24.99999999 2 #  20: H
  6.97173735  1.80789862 25.00000000 1 #  21: C
  6.97853864  3.25508157 25.00000000 1 #  22: C
  7.06718577  6.29313351 25.00000000 3 #  23: O
  7.94323264  1.19568969 24.99999999 2 #  24: H
  8.16987410  5.61007577 24.99999999 1 #  25: C
  8.21086761  4.06886810 25.00000000 1 #  26: C
  9.45287055  7.41083036 25.00000000 2 #  27: H
  9.46212158  6.25955268 24.99999999 1 #  28: C
  9.48464250  3.43251045 25.00000000 1 #  29: C
  9.49319364  2.28847323 25.00000001 2 #  30: H
 10.76457358  5.63197353 25.00000000 1 #  31: C
 10.74721166  4.09248311 25.00000000 1 #  32: C
 11.05191364  1.23089531 24.99999999 2 #  33: H
 11.85593487  6.33208115 25.00000000 3 #  34: O
 11.99318609  3.30254252 25.00000000 1 #  35: C
 12.01354091  1.85689530 24.99999999 1 #  36: C
 13.10205655 -0.00696710 24.99999998 2 #  37: H
 13.04471191  5.16111656 25.00000000 2 #  38: H
 13.21851421  1.14489617 24.99999998 1 #  39: C
 13.24864706  3.99356349 25.00000000 1 #  40: C
 14.48815732  3.28373252 25.00000000 1 #  41: C
 14.49236313  1.83310607 24.99999999 1 #  42: C
 14.82061947  7.82888265 24.99999999 2 #  43: H
 14.80809049  5.96721162 25.00000000 2 #  44: H
 15.77791145  1.11170161 24.99999999 1 #  45: C
 15.78354409  4.01263139 25.00000000 1 #  46: C
 15.81846449  8.38624807 24.99999998 1 #  47: C
 15.81707575  5.42809579 25.00000000 1 #  48: C
 17.03321345  7.64559460 24.99999996 1 #  49: C
 17.03247525  6.17253837 24.99999999 1 #  50: C
 17.03679902  1.84028919 24.99999999 1 #  51: C
 17.03869465  3.28716807 25.00000000 1 #  52: C
 18.28790660  1.11670945 24.99999999 1 #  53: C
 18.29242022  8.36079413 24.99999999 1 #  54: C
 18.29029198  4.01114978 25.00000000 1 #  55: C
 18.29247820  5.45963341 25.00000000 1 #  56: C
 19.54634549  7.63485828 24.99999999 1 #  57: C
 19.54635141  1.84265332 25.00000000 1 #  58: C
 19.54684093  6.18595257 24.99999999 1 #  59: C
 19.54698659  3.28444645 25.00000000 1 #  60: C
 20.79997598  8.35971178 25.00000000 1 #  61: C
 20.80143838  5.45855005 25.00000000 1 #  62: C
 20.80425667  1.11575113 25.00000000 1 #  63: C
 20.80416908  4.01020151 25.00000000 1 #  64: C
 22.05522042  1.83885189 25.00000000 1 #  65: C
 22.05870284  7.64311134 25.00000000 1 #  66: C
 22.05574793  3.28553763 25.00000000 1 #  67: C
 22.06175208  6.16989317 25.00000000 1 #  68: C
 23.27253128  8.38373346 25.00000000 1 #  69: C
 23.27799043  5.42500378 25.00000000 1 #  70: C
 23.31260586  1.10862727 25.00000000 1 #  71: C
 23.31247877  4.00920030 25.00000000 1 #  72: C
 24.27072715  7.82753092 25.00000000 2 #  73: H
 24.28741490  5.96391613 25.00000000 2 #  74: H
 24.59922547  1.82673655 25.00000001 1 #  75: C
 24.60794350  3.27732736 25.00000000 1 #  76: C
 25.86953524  1.13302616 25.00000001 1 #  77: C
 25.85207672  3.98041877 25.00000000 1 #  78: C
 26.06152341  5.14733860 25.00000001 2 #  79: H
 25.97994815 -0.01879589 25.00000002 2 #  80: H
 27.07848375  1.83749433 25.00000000 1 #  81: C
 27.10557925  3.28293424 25.00000000 1 #  82: C
 27.25267418  6.30512798 25.00000003 3 #  83: O
 28.03662755  1.20546933 25.00000002 2 #  84: H
 28.35750701  4.06453295 25.00000001 1 #  85: C
 28.34241179  5.60307190 25.00000002 1 #  86: C
 29.61278042  2.25859968 25.00000000 2 #  87: H
 29.62130835  3.40349003 25.00000000 1 #  88: C
 29.64413893  6.23052625 25.00000001 1 #  89: C
 29.65368251  7.38122294 25.00000001 2 #  90: H
 30.93511780  5.58161854 25.00000001 1 #  91: C
 30.89605947  4.04102768 25.00000001 1 #  92: C
 31.18301116  1.16689064 25.00000000 2 #  93: H
 32.03504107  6.26911226 25.00000001 3 #  94: O
 32.13392749  3.23436364 25.00000000 1 #  95: C
 32.14901782  1.78756686 25.00000000 1 #  96: C
 33.22633396  8.60851148 25.00000000 2 #  97: H
 33.20309909  5.08404057 25.00000001 2 #  98: H
 33.35130079  1.06754459 25.00000000 1 #  99: C
 33.39431120  3.91541948 25.00000000 1 # 100: C
 34.63015026  3.19966521 25.00000000 1 # 101: C
 34.63038574  1.74905788 25.00000000 1 # 102: C
 34.95880871  7.74757376 25.00000000 2 # 103: H
 34.95121638  5.88364903 25.00000000 2 # 104: H
 35.92592210  3.92774657 25.00000000 1 # 105: C
 35.91752949  1.02740875 25.00000000 1 # 106: C
 35.95929178  5.34324251 25.00000000 1 # 107: C
 35.95906136  8.30167705 25.00000000 1 # 108: C
 37.17430179  6.08794507 25.00000000 1 # 109: C
 37.17453836  7.56119379 25.00000000 1 # 110: C
 37.18056264  3.20232516 25.00000000 1 # 111: C
 37.17768897  1.75545850 25.00000000 1 # 112: C
 38.43167210  3.92701071 25.00000000 1 # 113: C
 38.42966407  1.03246927 25.00000000 1 # 114: C
 38.43407031  5.37576058 25.00000000 1 # 115: C
 38.43424774  8.27652611 25.00000001 1 # 116: C
 39.68802718  3.20052997 25.00000000 1 # 117: C
 39.68799936  6.10288664 25.00000001 1 # 118: C
 39.68899027  1.75860041 25.00000000 1 # 119: C
 39.68888547  7.55199427 25.00000001 1 # 120: C
%endblock AtomicCoordinatesAndAtomicSpecies

NumberOfSpecies 3
%block ChemicalSpeciesLabel
 1 6 C
 2 1 H
 3 8 O
%endblock ChemicalSpeciesLabel
