# #

SystemLabel      meta.aims

NumberOfAtoms    92

NumberOfSpecies  1
%block ChemicalSpeciesLabel
    1    6  C
%endblock ChemicalSpeciesLabel

LatticeConstant 1.0 Ang
%block LatticeVectors
  40.2591751900    0.0000000000    0.0000000000
   0.0000000000    8.6935000000    0.0000000000
   0.0000000000    0.0000000000   50.0000000000
%endblock LatticeVectors

AtomicCoordinatesFormat NotScaledCartesianAng
%block AtomicCoordinatesAndAtomicSpecies
    39.693150440     7.569288530    25.000000000    1
    39.692731480     1.782242540    25.000000000    1
    39.691745000     6.127412820    25.000000000    1
    39.691056320     3.221017740    25.000000000    1
    38.443390390     8.297700260    25.000000000    1
    38.442571280     5.396793230    25.000000000    1
    38.440684250     1.051924560    25.000000000    1
    38.438708560     3.949608420    25.000000000    1
    37.194651450     1.776418720    25.000000000    1
    37.192434640     3.223684160    25.000000000    1
    37.191610430     7.580090620    25.000000000    1
    37.190442490     6.111259890    25.000000000    1
    35.979835140     8.325105240    25.000000000    1
    35.977481280     5.364720270    25.000000000    1
    35.946600310     1.042670230    25.000000000    1
    35.941154380     3.953161050    25.000000000    1
    34.667693100     1.773262260    25.000000000    1
    34.660358540     3.211161120    25.000000000    1
    33.408784510     3.893083240    25.000000000    1
    33.408470700     1.095217630    25.000000000    1
    32.191107460     1.790378580    25.000000000    1
    32.162538650     3.222238970    25.000000000    1
    30.879055720     3.992716540    25.000000000    1
    30.875312440     5.418415280    25.000000000    1
    29.657091140     6.130605470    25.000000000    1
    29.620601110     3.327586110    25.000000000    1
    28.418819330     5.452272560    25.000000000    1
    28.379378290     4.026876520    25.000000000    1
    27.080278860     3.283792480    25.000000000    1
    27.041714690     1.852696330    25.000000010    1
    25.838175220     3.965266730    25.000000010    1
    25.821664580     1.164822950    25.000000000    1
    24.580974130     3.289930550    25.000000010    1
    24.567310280     1.851800160    25.000000000    1
    23.299221200     4.033475850    25.000000000    1
    23.288094420     1.123325080    25.000000000    1
    23.262605530     5.445506040    25.000000000    1
    23.255258790     8.406011720    25.000000000    1
    22.048085600     6.192142110    25.000000000    1
    22.045918120     3.305682520    25.000000000    1
    22.044583030     7.660971200    25.000000000    1
    22.041520080     1.858369610    25.000000000    1
    20.798995370     4.031802140    25.000000000    1
    20.795536810     1.134264770    25.000000000    1
    20.794795060     5.478996540    25.000000000    1
    20.793201240     8.379914520    25.000000000    1
    19.545471400     3.304274280    25.000000000    1
    19.545025110     6.210271600    25.000000000    1
    19.543912340     1.865393200    25.000000000    1
    19.543092980     7.652181260    25.000000000    1
    18.295169110     5.482894400    25.000000000    1
    18.293637550     4.035545040    25.000000000    1
    18.293557630     8.383468350    25.000000000    1
    18.291050020     1.137514570    25.000000000    1
    17.047052510     3.311169820    24.999999990    1
    17.046171240     1.864047750    25.000000000    1
    17.043511390     6.200174380    25.000000000    1
    17.040400610     7.668881980    25.000000000    1
    15.832016350     5.454101900    25.000000000    1
    15.826912380     8.415144160    25.000000000    1
    15.797723820     4.043583970    24.999999990    1
    15.795661050     1.133947610    24.999999990    1
    14.519042830     1.871788990    24.999999990    1
    14.513788380     3.309924180    25.000000000    1
    13.264081350     3.999342520    25.000000000    1
    13.257264810     1.199959610    24.999999990    1
    12.043587960     1.900095900    24.999999990    1
    12.016739830     3.332611950    25.000000000    1
    10.726515710     4.091678770    25.000000000    1
    10.684220030     5.518039810    25.000000000    1
     9.486796040     3.393289220    25.000000000    1
     9.441329490     6.190039150    25.000000000    1
     8.225699970     4.049281170    25.000000000    1
     8.223074860     5.476143820    25.000000000    1
     6.953729770     3.260689610    25.000000000    1
     6.936330100     1.827525180    25.000000000    1
     5.723663450     1.120951410    25.000000000    1
     5.702535170     3.918141100    25.000000000    1
     4.458356870     3.224341380    25.000000000    1
     4.457730930     1.787118410    25.000000000    1
     3.181439480     1.048492260    25.000000000    1
     3.177101510     3.959007540    25.000000000    1
     3.149030450     8.329924240    25.000000000    1
     3.143933480     5.369536110    25.000000000    1
     1.936119640     7.583651580    25.000000000    1
     1.932585010     6.115375240    25.000000000    1
     1.930816650     1.778723920    25.000000000    1
     1.929127520     3.226196640    25.000000000    1
     0.686039370     1.053188630    25.000000000    1
     0.683538100     8.299213310    25.000000000    1
     0.683313600     3.951358720    25.000000000    1
     0.681194580     5.398587650    25.000000000    1
%endblock AtomicCoordinatesAndAtomicSpecies

