# Created by GDIS version 0.90.0
#

SystemLabel      NPGNEW2

NumberOfAtoms    80

NumberOfSpecies  1
%block ChemicalSpeciesLabel
    1    6  C
%endblock ChemicalSpeciesLabel

AtomicCoordinatesFormat Fractional
%block AtomicCoordinatesAndAtomicSpecies
    -7.989999989     3.550000003     0.000000000    1
    -9.220000013     2.839999997     0.000000000    1
   -10.450000001     3.550000003     0.000000000    1
     3.080000012     2.839999997     0.000000000    1
     3.080000012     1.420000003     0.000000000    1
     1.849999987     3.550000003     0.000000000    1
     1.849999987     0.709999997     0.000000000    1
     0.619999999     2.839999997     0.000000000    1
     0.619999999     1.420000003     0.000000000    1
    -0.609999989     3.550000003     0.000000000    1
    -0.609999989     0.709999997     0.000000000    1
    -1.840000013     2.839999997     0.000000000    1
    -1.840000013     1.420000003     0.000000000    1
    -3.070000001     3.550000003     0.000000000    1
    -3.070000001     0.709999997     0.000000000    1
    10.460000012     2.839999997     0.000000000    1
     9.229999987     3.550000003     0.000000000    1
     4.309999999     3.550000003     0.000000000    1
     4.309999999     0.709999997     0.000000000    1
    16.609999987     3.550000003     0.000000000    1
    16.609999987     0.709999997     0.000000000    1
    15.379999999     2.839999997     0.000000000    1
    15.379999999     1.420000003     0.000000000    1
    14.150000011     3.550000003     0.000000000    1
    14.150000011     0.709999997     0.000000000    1
    12.919999987     2.839999997     0.000000000    1
    12.919999987     1.420000003     0.000000000    1
    11.689999999     3.550000003     0.000000000    1
   -11.679999989     2.839999997     0.000000000    1
   -11.679999989     1.420000003     0.000000000    1
   -12.910000013     3.550000003     0.000000000    1
   -12.910000013     0.709999997     0.000000000    1
   -14.140000001     2.839999997     0.000000000    1
   -14.140000001     1.420000003     0.000000000    1
    -4.299999988    -1.420000003     0.000000000    1
    -4.299999988    -2.839999997     0.000000000    1
    -5.530000013    -3.550000003     0.000000000    1
    -6.760000001    -1.420000003     0.000000000    1
    -6.760000001    -2.839999997     0.000000000    1
    -7.989999989    -3.550000003     0.000000000    1
    -9.220000013    -2.839999997     0.000000000    1
   -10.450000001    -3.550000003     0.000000000    1
     3.080000012    -1.420000003     0.000000000    1
     3.080000012    -2.839999997     0.000000000    1
     1.849999987    -0.709999997     0.000000000    1
     1.849999987    -3.550000003     0.000000000    1
     0.619999999    -1.420000003     0.000000000    1
     0.619999999    -2.839999997     0.000000000    1
    -0.609999989    -0.709999997     0.000000000    1
    -0.609999989    -3.550000003     0.000000000    1
    -1.840000013    -1.420000003     0.000000000    1
    -1.840000013    -2.839999997     0.000000000    1
    -3.070000001    -0.709999997     0.000000000    1
    -3.070000001    -3.550000003     0.000000000    1
    10.460000012    -2.839999997     0.000000000    1
     9.229999987    -3.550000003     0.000000000    1
     7.999999999    -1.420000003     0.000000000    1
     7.999999999    -2.839999997     0.000000000    1
     6.770000011    -0.709999997     0.000000000    1
     6.770000011    -3.550000003     0.000000000    1
     5.539999987    -1.420000003     0.000000000    1
     5.539999987    -2.839999997     0.000000000    1
     4.309999999    -0.709999997     0.000000000    1
     4.309999999    -3.550000003     0.000000000    1
    15.379999999    -1.420000003     0.000000000    1
    15.379999999    -2.839999997     0.000000000    1
    14.150000011    -0.709999997     0.000000000    1
    14.150000011    -3.550000003     0.000000000    1
    12.919999987    -1.420000003     0.000000000    1
    12.919999987    -2.839999997     0.000000000    1
    11.689999999    -3.550000003     0.000000000    1
   -11.679999989    -1.420000003     0.000000000    1
   -11.679999989    -2.839999997     0.000000000    1
   -12.910000013    -0.709999997     0.000000000    1
   -12.910000013    -3.550000003     0.000000000    1
   -14.140000001    -1.420000003     0.000000000    1
   -14.140000001    -2.839999997     0.000000000    1
   -15.369999988    -0.709999997     0.000000000    1
   -15.369999988    -3.550000003     0.000000000    1
    -5.530000013    -0.709999997     0.000000000    1
%endblock AtomicCoordinatesAndAtomicSpecies

PAO.BasisType    split
PAO.BasisSize    DZP
SolutionMethod     diagon
PAO.SplitNorm    0.150000
PAO.EnergyShift    0.020000  Ry
Harris_functional    false
XC.functional    LDA
XC.Authors    PZ
SpinPolarized    false
MeshCutoff    100.000000 Ry
kgrid_cutoff    0.000000 Bohr
ElectronicTemperature    300.000000 K
MaxSCFIterations    50
DM.NumberPulay    0
DM.MixingWeight    0.250000
MD.TypeOfRun    CG
MD.VariableCell    false
MD.NumCGsteps    35
MD.MaxCGDispl    0.200000 Bohr
MD.PreconditionVariableCell    5.000000 Ang
MD.MaxStressTol    1.000000 GPa

%block MD.TargetStress
-1.000000 -1.000000 -1.000000 0.000000 0.000000 0.000000
%endblock MD.TargetStress

MD.MaxForceTol    0.040000 eV/Ang
MD.InitialTimeStep    1
MD.FinalTimeStep    1
MD.LengthTimeStep    1 fs
MD.InitialTemperature    0.000000 K
MD.Quench    false
MD.TargetTemperature    0.000000 K
MD.NoseMass    100.000000 Ry*fs**2
MD.ParrinelloRahmanMass    100.000000 Ry*fs**2
MD.AnnealOption    TemperatureandPressure
MD.TauRelax    100.000000 fs
MD.BulkModulus    100.000000 Ry/Bohr**3
MD.TargetPressure    0.000000 GPa
MD.FCDispl    0.040000 Bohr
MD.FCfirst    1
MD.FClast    0

UseSaveData		false
WriteCoorInital    true
WriteCoorStep    false
WriteForces		false
WriteKpoints		false
WriteEigenvalues		false
WriteKbands		false
WriteBands		false
WriteWaveFunctions		false
WriteMullikenPop		0
WriteDM		true
WriteCoorXmol		false
WriteCoorCerius		false
WriteMDXmol		false
WriteMDhistory		true
