# Created by GDIS version 0.90.0
#

SystemLabel      NPGNEW

NumberOfAtoms    80

NumberOfSpecies  1
%block ChemicalSpeciesLabel
    1    6  C
%endblock ChemicalSpeciesLabel

LatticeConstant 1.0 Ang
%block LatticeVectors
  36.9000000000    0.0000000000    0.0000000000
   0.0000000000    8.5200000000    0.0000000000
   0.0000000000    0.0000000000   50.0000000000
%endblock LatticeVectors

AtomicCoordinatesFormat Fractional
%block AtomicCoordinatesAndAtomicSpecies
     0.350135501     0.416666667     0.500000000    1
     0.083468835     0.083333333     0.500000000    1
     0.083468835     0.416666667     0.500000000    1
     0.116802168     0.166666667     0.500000000    1
     0.116802168     0.333333333     0.500000000    1
     0.150135501     0.083333333     0.500000000    1
     0.150135501     0.416666667     0.500000000    1
     0.183468835     0.166666667     0.500000000    1
     0.183468835     0.333333333     0.500000000    1
     0.816802168     0.083333333     0.500000000    1
     0.850135501     0.166666667     0.500000000    1
     0.850135501     0.333333333     0.500000000    1
     0.883468835     0.083333333     0.500000000    1
     0.883468835     0.416666667     0.500000000    1
     0.916802168     0.166666667     0.500000000    1
     0.916802168     0.333333333     0.500000000    1
     0.616802168     0.083333333     0.500000000    1
     0.616802168     0.416666667     0.500000000    1
     0.650135501     0.166666667     0.500000000    1
     0.650135501     0.333333333     0.500000000    1
     0.683468835     0.083333333     0.500000000    1
     0.683468835     0.416666667     0.500000000    1
     0.716802168     0.166666667     0.500000000    1
     0.716802168     0.333333333     0.500000000    1
     0.750135501     0.083333333     0.500000000    1
     0.783468835     0.166666667     0.500000000    1
     0.416802168     0.083333333     0.500000000    1
     0.416802168     0.416666667     0.500000000    1
     0.450135501     0.166666667     0.500000000    1
     0.450135501     0.333333333     0.500000000    1
     0.483468835     0.083333333     0.500000000    1
     0.483468835     0.416666667     0.500000000    1
     0.516802168     0.166666667     0.500000000    1
     0.516802168     0.333333333     0.500000000    1
     0.550135501     0.083333333     0.500000000    1
     0.550135501     0.416666667     0.500000000    1
     0.583468835     0.166666667     0.500000000    1
     0.583468835     0.333333333     0.500000000    1
     0.216802168     0.083333333     0.500000000    1
     0.250135501     0.166666667     0.500000000    1
     0.283468835     0.083333333     0.500000000    1
     0.316802168     0.166666667     0.500000000    1
     0.316802168     0.333333333     0.500000000    1
     0.350135501     0.083333333     0.500000000    1
     0.383468835     0.166666667     0.500000000    1
     0.383468835     0.333333333     0.500000000    1
     0.116802168     0.666666667     0.500000000    1
     0.116802168     0.833333333     0.500000000    1
     0.150135501     0.583333333     0.500000000    1
     0.150135501     0.916666667     0.500000000    1
     0.183468835     0.666666667     0.500000000    1
     0.183468835     0.833333333     0.500000000    1
     0.816802168     0.916666667     0.500000000    1
     0.850135501     0.666666667     0.500000000    1
     0.850135501     0.833333333     0.500000000    1
     0.883468835     0.583333333     0.500000000    1
     0.883468835     0.916666667     0.500000000    1
     0.916802168     0.666666667     0.500000000    1
     0.916802168     0.833333333     0.500000000    1
     0.950135501     0.583333333     0.500000000    1
     0.950135501     0.916666667     0.500000000    1
     0.616802168     0.583333333     0.500000000    1
     0.616802168     0.916666667     0.500000000    1
     0.750135501     0.916666667     0.500000000    1
     0.783468835     0.833333333     0.500000000    1
     0.416802168     0.583333333     0.500000000    1
     0.416802168     0.916666667     0.500000000    1
     0.450135501     0.666666667     0.500000000    1
     0.450135501     0.833333333     0.500000000    1
     0.483468835     0.583333333     0.500000000    1
     0.483468835     0.916666667     0.500000000    1
     0.516802168     0.666666667     0.500000000    1
     0.516802168     0.833333333     0.500000000    1
     0.550135501     0.583333333     0.500000000    1
     0.550135501     0.916666667     0.500000000    1
     0.583468835     0.666666667     0.500000000    1
     0.583468835     0.833333333     0.500000000    1
     0.216802168     0.916666667     0.500000000    1
     0.250135501     0.833333333     0.500000000    1
     0.283468835     0.916666667     0.500000000    1
%endblock AtomicCoordinatesAndAtomicSpecies

PAO.BasisType    split
PAO.BasisSize    DZP
SolutionMethod     diagon
PAO.SplitNorm    0.150000
PAO.EnergyShift    0.020000  Ry
Harris_functional    false
XC.functional    LDA
XC.Authors    PZ
SpinPolarized    false
MeshCutoff    100.000000 Ry
kgrid_cutoff    0.000000 Bohr
ElectronicTemperature    300.000000 K
MaxSCFIterations    50
DM.NumberPulay    0
DM.MixingWeight    0.250000
MD.TypeOfRun    CG
MD.VariableCell    false
MD.NumCGsteps    10844
MD.MaxCGDispl    0.200000 Bohr
MD.PreconditionVariableCell    5.000000 Ang
MD.MaxStressTol    1.000000 GPa

%block MD.TargetStress
-1.000000 -1.000000 -1.000000 0.000000 0.000000 0.000000
%endblock MD.TargetStress

MD.MaxForceTol    0.040000 eV/Ang
MD.InitialTimeStep    1
MD.FinalTimeStep    1
MD.LengthTimeStep    1 fs
MD.InitialTemperature    0.000000 K
MD.Quench    false
MD.TargetTemperature    0.000000 K
MD.NoseMass    100.000000 Ry*fs**2
MD.ParrinelloRahmanMass    100.000000 Ry*fs**2
MD.AnnealOption    Temperature
MD.TauRelax    100.000000 fs
MD.BulkModulus    100.000000 Ry/Bohr**3
MD.TargetPressure    0.000000 GPa
MD.FCDispl    0.040000 Bohr
MD.FCfirst    1
MD.FClast    0

UseSaveData		false
WriteCoorInital    true
WriteCoorStep    false
WriteForces		false
WriteKpoints		false
WriteEigenvalues		false
WriteKbands		false
WriteBands		false
WriteWaveFunctions		false
WriteMullikenPop		0
WriteDM		true
WriteCoorXmol		false
WriteCoorCerius		false
WriteMDXmol		false
WriteMDhistory		true
