# Created by GDIS version 0.90.0
#

SystemLabel      NPGNEW2

NumberOfAtoms    88

NumberOfSpecies  1
%block ChemicalSpeciesLabel
    1    6  C
%endblock ChemicalSpeciesLabel

LatticeConstant 1.0 Ang
%block LatticeVectors
  34.4400000000    0.0000000000    0.0000000000
   0.0000000000    8.5200000000    0.0000000000
   0.0000000000    0.0000000000   50.0000000000
%endblock LatticeVectors

AtomicCoordinatesFormat NotScaledCartesianAng
%block AtomicCoordinatesAndAtomicSpecies
     0.620000000     0.710000000    25.000000000    1
     0.620000000     3.550000000    25.000000000    1
     0.620000000     4.970000000    25.000000000    1
     0.620000000     7.810000000    25.000000000    1
     1.850000000     1.420000000    25.000000000    1
     1.850000000     2.840000000    25.000000000    1
     1.850000000     5.680000000    25.000000000    1
     1.850000000     7.100000000    25.000000000    1
     3.080000000     0.710000000    25.000000000    1
     3.080000000     3.550000000    25.000000000    1
     3.080000000     4.970000000    25.000000000    1
     3.080000000     7.810000000    25.000000000    1
     4.310000000     1.420000000    25.000000000    1
     4.310000000     2.840000000    25.000000000    1
     4.310000000     5.680000000    25.000000000    1
     4.310000000     7.100000000    25.000000000    1
     5.540000000     0.710000000    25.000000000    1
     5.540000000     7.810000000    25.000000000    1
     6.770000000     1.420000000    25.000000000    1
     6.770000000     7.100000000    25.000000000    1
     8.000000000     0.710000000    25.000000000    1
     8.000000000     7.810000000    25.000000000    1
     9.230000000     1.420000000    25.000000000    1
     9.230000000     2.840000000    25.000000000    1
    10.460000000     0.710000000    25.000000000    1
    10.460000000     3.550000000    25.000000000    1
    11.690000000     1.420000000    25.000000000    1
    11.690000000     2.840000000    25.000000000    1
    12.920000000     0.710000000    25.000000000    1
    12.920000000     3.550000000    25.000000000    1
    12.920000000     4.970000000    25.000000000    1
    12.920000000     7.810000000    25.000000000    1
    14.150000000     1.420000000    25.000000000    1
    14.150000000     2.840000000    25.000000000    1
    14.150000000     5.680000000    25.000000000    1
    14.150000000     7.100000000    25.000000000    1
    15.380000000     0.710000000    25.000000000    1
    15.380000000     3.550000000    25.000000000    1
    15.380000000     4.970000000    25.000000000    1
    15.380000000     7.810000000    25.000000000    1
    16.610000000     1.420000000    25.000000000    1
    16.610000000     2.840000000    25.000000000    1
    16.610000000     5.680000000    25.000000000    1
    16.610000000     7.100000000    25.000000000    1
    17.840000000     0.710000000    25.000000000    1
    17.840000000     3.550000000    25.000000000    1
    17.840000000     4.970000000    25.000000000    1
    17.840000000     7.810000000    25.000000000    1
    19.070000000     1.420000000    25.000000000    1
    19.070000000     2.840000000    25.000000000    1
    19.070000000     5.680000000    25.000000000    1
    19.070000000     7.100000000    25.000000000    1
    20.300000000     0.710000000    25.000000000    1
    20.300000000     3.550000000    25.000000000    1
    20.300000000     4.970000000    25.000000000    1
    20.300000000     7.810000000    25.000000000    1
    21.530000000     1.420000000    25.000000000    1
    21.530000000     2.840000000    25.000000000    1
    22.760000000     0.710000000    25.000000000    1
    22.760000000     3.550000000    25.000000000    1
    23.990000000     1.420000000    25.000000000    1
    23.990000000     2.840000000    25.000000000    1
    25.220000000     0.710000000    25.000000000    1
    25.220000000     7.810000000    25.000000000    1
    26.450000000     1.420000000    25.000000000    1
    26.450000000     7.100000000    25.000000000    1
    27.680000000     0.710000000    25.000000000    1
    27.680000000     7.810000000    25.000000000    1
    28.910000000     1.420000000    25.000000000    1
    28.910000000     2.840000000    25.000000000    1
    28.910000000     5.680000000    25.000000000    1
    28.910000000     7.100000000    25.000000000    1
    30.140000000     0.710000000    25.000000000    1
    30.140000000     3.550000000    25.000000000    1
    30.140000000     4.970000000    25.000000000    1
    30.140000000     7.810000000    25.000000000    1
    31.370000000     1.420000000    25.000000000    1
    31.370000000     2.840000000    25.000000000    1
    31.370000000     5.680000000    25.000000000    1
    31.370000000     7.100000000    25.000000000    1
    32.600000000     0.710000000    25.000000000    1
    32.600000000     3.550000000    25.000000000    1
    32.600000000     4.970000000    25.000000000    1
    32.600000000     7.810000000    25.000000000    1
    33.830000000     1.420000000    25.000000000    1
    33.830000000     2.840000000    25.000000000    1
    33.830000000     5.680000000    25.000000000    1
    33.830000000     7.100000000    25.000000000    1
%endblock AtomicCoordinatesAndAtomicSpecies

PAO.BasisType    split
PAO.BasisSize    DZP
SolutionMethod     diagon
PAO.SplitNorm    0.150000
PAO.EnergyShift    0.020000  Ry
Harris_functional    false
XC.functional    LDA
XC.Authors    PZ
SpinPolarized    false
MeshCutoff    100.000000 Ry
kgrid_cutoff    0.000000 Bohr
ElectronicTemperature    300.000000 K
MaxSCFIterations    50
DM.NumberPulay    0
DM.MixingWeight    0.250000
MD.TypeOfRun    CG
MD.VariableCell    false
MD.NumCGsteps    0
MD.MaxCGDispl    0.200000 Bohr
MD.PreconditionVariableCell    5.000000 Ang
MD.MaxStressTol    1.000000 GPa

%block MD.TargetStress
-1.000000 -1.000000 -1.000000 0.000000 0.000000 0.000000
%endblock MD.TargetStress

MD.MaxForceTol    0.040000 eV/Ang
MD.InitialTimeStep    1
MD.FinalTimeStep    1
MD.LengthTimeStep    1 fs
MD.InitialTemperature    0.000000 K
MD.Quench    false
MD.TargetTemperature    0.000000 K
MD.NoseMass    100.000000 Ry*fs**2
MD.ParrinelloRahmanMass    100.000000 Ry*fs**2
MD.AnnealOption    TemperatureandPressure
MD.TauRelax    100.000000 fs
MD.BulkModulus    100.000000 Ry/Bohr**3
MD.TargetPressure    0.000000 GPa
MD.FCDispl    0.040000 Bohr
MD.FCfirst    1
MD.FClast    0

UseSaveData		false
WriteCoorInital    true
WriteCoorStep    false
WriteForces		false
WriteKpoints		false
WriteEigenvalues		false
WriteKbands		false
WriteBands		false
WriteWaveFunctions		false
WriteMullikenPop		0
WriteDM		true
WriteCoorXmol		false
WriteCoorCerius		false
WriteMDXmol		false
WriteMDhistory		true
