# #

SystemLabel      para_C.aims

NumberOfAtoms    92

NumberOfSpecies  1
%block ChemicalSpeciesLabel
    1    6  C
%endblock ChemicalSpeciesLabel

LatticeConstant 1.0 Ang
%block LatticeVectors
  40.2591751900    0.0000000000    0.0000000000
   0.0000000000    8.6935000000    0.0000000000
   0.0000000000    0.0000000000   50.0000000000
%endblock LatticeVectors

AtomicCoordinatesFormat NotScaledCartesianAng
%block AtomicCoordinatesAndAtomicSpecies
    35.941039290     1.044032370    25.000000000    1
    38.438966040     1.052163600    25.000000000    1
     3.189325570     1.052625900    25.000000000    1
     0.688785560     1.054917660    25.000000000    1
    33.397259310     1.106226750    25.000000000    1
     5.737881500     1.134351930    25.000000000    1
    23.300531320     1.263561130    25.000000000    1
    15.858894440     1.268172570    25.000000000    1
    20.829983030     1.295206930    25.000000000    1
    18.326587000     1.297561370    25.000000000    1
    37.191244540     1.776164140    25.000000000    1
    34.661337890     1.777530390    25.000000000    1
     1.936038820     1.780920900    25.000000000    1
    39.692905340     1.782263580    25.000000000    1
     4.467383210     1.793589520    25.000000000    1
    32.180801160     1.805704870    25.000000000    1
     6.949258360     1.844502780    25.000000000    1
    22.084631890     2.009521640    25.000000000    1
    17.072665300     2.014376660    25.000000000    1
    19.578018120     2.024525680    25.000000000    1
    34.656814360     3.215949240    25.000000000    1
    39.691871000     3.221684390    25.000000000    1
    37.190398020     3.223420730    25.000000000    1
     1.933572120     3.228227020    25.000000000    1
     4.466622510     3.232208260    25.000000000    1
    32.157322540     3.239222100    25.000000000    1
     6.967436190     3.278460520    25.000000000    1
    29.604675800     3.361775470    25.000000000    1
     9.519744610     3.409662270    25.000000000    1
    19.575911650     3.467296910    25.000000000    1
    22.077308010     3.479159880    25.000000000    1
    17.074037880     3.483955550    25.000000000    1
    33.407757470     3.903616760    25.000000000    1
     5.711240230     3.931077380    25.000000000    1
    38.437914350     3.949058660    25.000000000    1
     0.685599010     3.951729400    25.000000000    1
    35.939554140     3.953552910    25.000000000    1
     3.181817320     3.962121190    25.000000000    1
    30.876525430     4.009676950    25.000000000    1
     8.247233380     4.056457840    25.000000000    1
    28.396552620     4.089699780    25.000000010    1
    10.728641250     4.136272790    25.000000000    1
    20.825433450     4.196362880    25.000000000    1
    18.326441530     4.198788660    25.000000000    1
    23.287621410     4.224446780    25.000000000    1
    15.861562610     4.229315770    24.999999990    1
    35.976722440     5.364946970    25.000000000    1
     3.145023430     5.372515390    25.000000000    1
    38.441919430     5.396749000    25.000000000    1
     0.682032810     5.399554670    25.000000000    1
    30.857527580     5.436533690    25.000000000    1
     8.270996740     5.484529890    25.000000000    1
    28.378820290     5.517886660    25.000000010    1
    10.753713370     5.564045610    25.000000000    1
    23.323770210     5.634985380    25.000000000    1
    15.823212180     5.640491110    24.999999990    1
    20.829239940     5.644662350    25.000000000    1
    18.321870810     5.646786800    24.999999990    1
    25.846925430     5.656116940    25.000000010    1
    13.291564360     5.679512560    24.999999990    1
    37.189198980     6.111452080    25.000000000    1
     1.933765510     6.117391310    25.000000000    1
    39.691486360     6.127283370    25.000000000    1
    29.651096070     6.164278050    25.000000010    1
     9.480595120     6.211602930    25.000000000    1
    27.105672950     6.300896310    25.000000010    1
    12.036706110     6.335753430    24.999999990    1
    24.608872400     6.363253560    25.000000000    1
    22.076884940     6.368953990    25.000000000    1
    17.073692820     6.372020340    24.999999990    1
    14.538361050     6.374764880    24.999999990    1
    19.576031620     6.374776750    25.000000000    1
    39.693314760     7.569922970    25.000000000    1
    37.188950250     7.580671290    25.000000000    1
     1.939593120     7.586523230    25.000000000    1
    27.098029900     7.734245060    25.000000010    1
    12.058631950     7.769167130    24.999999980    1
    24.615709170     7.801947210    25.000000010    1
    14.540319840     7.813917370    24.999999980    1
    19.578075580     7.814065950    25.000000000    1
    22.081786360     7.816324330    25.000000000    1
    17.074659140     7.819279370    25.000000000    1
    38.442255580     8.297642450    25.000000000    1
     0.685118280     8.300442310    25.000000000    1
    35.976109190     8.325916670    25.000000000    1
     3.153970800     8.333244510    25.000000000    1
    25.891962960     8.454113560    25.000000010    1
    13.270466140     8.478244500    24.999999970    1
    20.833357290     8.541101470    25.000000000    1
    18.323547880     8.543147270    25.000000000    1
    23.337057320     8.543835400    25.000000000    1
    15.821529890     8.549577180    24.999999990    1
%endblock AtomicCoordinatesAndAtomicSpecies

