# Created by GDIS version 0.90.0
#

SystemLabel      PS2O2OH_OH-Sites_Removed

NumberOfAtoms    118

NumberOfSpecies  3
%block ChemicalSpeciesLabel
    1    1  H
    2    6  C
    3    8  O
%endblock ChemicalSpeciesLabel

LatticeConstant 1.0 Ang
%block LatticeVectors
  40.2591751900    0.0000000000    0.0000000000
   0.0000000000    8.6935000000    0.0000000000
   0.0000000000    0.0000000000   50.0000000000
%endblock LatticeVectors

AtomicCoordinatesFormat NotScaledCartesianAng
%block AtomicCoordinatesAndAtomicSpecies
    25.930863270     0.921339710    25.000000010    1
    13.228370610     0.940902370    24.999999980    1
    35.950538330     1.047875760    25.000000000    2
    38.444484050     1.057140620    25.000000000    2
     3.186268670     1.054474120    25.000000000    2
     0.690629570     1.058932410    25.000000000    2
    33.414223900     1.090687360    25.000000000    2
     5.726172090     1.113023760    25.000000000    2
    31.217107100     1.128699910    25.000000000    1
     7.921651760     1.163861850    25.000000000    1
    23.292976890     1.258863820    25.000000000    2
    15.856995840     1.263391720    24.999999990    2
    20.824871760     1.287638060    25.000000000    2
    18.323415980     1.289277230    25.000000000    2
    37.197778280     1.780881430    25.000000000    2
    34.670352630     1.772912320    25.000000000    2
     1.936749790     1.784371120    25.000000000    2
    39.696709460     1.786262020    25.000000000    2
     4.465075870     1.785469600    25.000000000    2
    32.183603520     1.764573980    25.000000000    2
    24.287264550     1.818124090    25.000000000    1
    14.864731560     1.824690600    25.000000000    1
     6.953276550     1.795370920    25.000000000    2
    22.079561240     2.002276590    25.000000000    2
    17.069402690     2.005865670    25.000000000    2
    19.574096890     2.015513370    25.000000000    2
    34.657897360     3.213115130    25.000000000    2
    39.696101040     3.227210140    25.000000000    2
    37.193800340     3.228653670    25.000000000    2
     1.938524170     3.232148600    25.000000000    2
     4.473597890     3.225596600    25.000000000    2
    32.154853780     3.205125720    25.000000000    2
     6.977107740     3.236691770    25.000000010    2
    29.564139710     3.383412740    25.000000000    2
     9.567282280     3.419079930    25.000000000    2
    19.572821460     3.460733730    25.000000000    2
    22.073640190     3.472495690    25.000000000    2
    17.071357590     3.476223720    25.000000000    2
    27.398561680     3.582008150    25.000000000    1
    11.732233770     3.614717690    25.000000000    1
    24.266362970     3.643861060    25.000000000    1
    14.877739070     3.647562390    25.000000000    1
    33.401712780     3.884337790    25.000000000    2
     5.725483130     3.906330040    25.000000000    2
    38.442393430     3.953611670    25.000000000    2
     0.690033260     3.955682700    25.000000000    2
    35.939927900     3.955315340    25.000000000    2
     3.190375560     3.961842410    25.000000000    2
    30.887546500     4.005897160    24.999999990    2
     8.243478170     4.042227150    25.000000010    2
    28.384007360     4.169617110    25.000000000    2
    10.748067650     4.203870830    25.000000010    2
    20.821123940     4.189321010    25.000000000    2
    18.324427560     4.190676470    24.999999990    2
    23.283133100     4.217896040    25.000000000    2
    15.860606700     4.222290830    25.000000000    2
    25.813096360     4.521354750    25.000000030    1
    13.317652250     4.540322610    25.000000000    1
    33.384543380     5.024828990    25.000000000    1
     5.737290740     5.047137090    25.000000010    1
    35.978736240     5.369132880    25.000000000    2
     3.153647610     5.374980690    25.000000000    2
    38.446777090     5.400931030    25.000000000    2
     0.687078940     5.403194410    25.000000000    2
    30.882329670     5.413935170    25.000000000    2
     8.250520840     5.451579030    25.000000010    2
    28.368979880     5.584146080    25.000000010    2
    10.766880090     5.617780640    24.999999990    2
    23.320223860     5.630027020    25.000000000    2
    15.821815510     5.635191030    24.999999990    2
    20.824726990     5.637064390    25.000000000    2
    18.319935940     5.638439150    24.999999990    2
    25.837834170     5.660363000    25.000000020    2
    13.299812350     5.679409390    24.999999980    2
    34.989924310     5.936284050    25.000000000    1
     4.142726410     5.941862320    25.000000000    1
    31.844952430     6.038171870    25.000000000    1
     7.286919560     6.075810540    25.000000000    1
    37.192005200     6.114073590    25.000000000    2
     1.941417790     6.118568850    25.000000000    2
    39.696418960     6.130387790    25.000000000    2
    29.694478350     6.287284070    25.000000000    2
     9.442318890     6.324137610    24.999999990    2
    27.092675350     6.323840040    25.000000020    2
    12.047600030     6.350729240    24.999999990    2
    24.604444420     6.362359960    25.000000010    2
    22.072218030     6.361446080    25.000000010    2
    17.072336560     6.364079540    24.999999980    2
    14.538320890     6.372771710    24.999999980    2
    19.572612520     6.366230040    24.999999990    2
    29.861654800     7.567728060    25.000000000    3
     9.279922520     7.604784830    24.999999990    3
    39.697555670     7.575733640    25.000000000    2
    37.194599140     7.584343200    25.000000000    2
     1.942610780     7.588673840    25.000000000    2
    27.104299140     7.762976500    25.000000020    2
    34.990159550     7.770924110    25.000000000    1
    12.041002570     7.789985750    24.999999980    2
     4.150633140     7.780256330    25.000000000    1
    24.613605140     7.805307710    25.000000010    2
    14.532946240     7.816155320    24.999999980    2
    19.573426800     7.806126200    25.000000000    2
    22.077144790     7.808841830    25.000000010    2
    17.070028120     7.811473160    24.999999980    2
    38.447671230     8.302155070    25.000000000    2
     0.688166270     8.303990480    25.000000000    2
    28.204684110     8.182005540    25.000000010    1
    35.984625540     8.327915180    25.000000000    2
     3.153409350     8.333855100    25.000000000    2
    10.941992740     8.214154980    24.999999980    1
    25.890632100     8.467411690    25.000000010    2
    13.259716450     8.486608140    24.999999980    2
    20.829199300     8.532917050    25.000000000    2
    18.318475360     8.534345880    24.999999990    2
    23.333607060     8.536965880    25.000000010    2
    15.815323180     8.542210320    24.999999990    2
    33.358205470     8.639901250    25.000000000    1
     5.790317310     8.662381990    25.000000000    1
%endblock AtomicCoordinatesAndAtomicSpecies

PAO.BasisType    split
PAO.BasisSize    DZP
SolutionMethod     diagon
PAO.SplitNorm    0.150000
PAO.EnergyShift    0.020000  Ry
Harris_functional    false
XC.functional    LDA
XC.Authors    PZ
SpinPolarized    false
MeshCutoff    100.000000 Ry
kgrid_cutoff    0.000000 Bohr
ElectronicTemperature    300.000000 K
MaxSCFIterations    50
DM.NumberPulay    0
DM.MixingWeight    0.250000
MD.TypeOfRun    CG
MD.VariableCell    false
MD.NumCGsteps    10844
MD.MaxCGDispl    0.200000 Bohr
MD.PreconditionVariableCell    5.000000 Ang
MD.MaxStressTol    1.000000 GPa

%block MD.TargetStress
-1.000000 -1.000000 -1.000000 0.000000 0.000000 0.000000
%endblock MD.TargetStress

MD.MaxForceTol    0.040000 eV/Ang
MD.InitialTimeStep    1
MD.FinalTimeStep    1
MD.LengthTimeStep    1 fs
MD.InitialTemperature    0.000000 K
MD.Quench    false
MD.TargetTemperature    0.000000 K
MD.NoseMass    100.000000 Ry*fs**2
MD.ParrinelloRahmanMass    100.000000 Ry*fs**2
MD.AnnealOption    TemperatureandPressure
MD.TauRelax    100.000000 fs
MD.BulkModulus    100.000000 Ry/Bohr**3
MD.TargetPressure    0.000000 GPa
MD.FCDispl    0.040000 Bohr
MD.FCfirst    1
MD.FClast    0

UseSaveData		false
WriteCoorInital    true
WriteCoorStep    false
WriteForces		false
WriteKpoints		false
WriteEigenvalues		false
WriteKbands		false
WriteBands		false
WriteWaveFunctions		false
WriteMullikenPop		0
WriteDM		true
WriteCoorXmol		false
WriteCoorCerius		false
WriteMDXmol		false
WriteMDhistory		true
