LatticeConstant 1.0 Ang
%block LatticeVectors
 40.25917519 0.00000000 0.00000000
 0.00000000 8.69350000 0.00000000
 0.00000000 0.00000000 50.00000000
%endblock LatticeVectors

NumberOfSpecies 3
%block ChemicalSpeciesLabel
 1 1 H
 2 6 C
 3 8 O
%endblock ChemicalSpeciesLabel

NumberOfAtoms 122
AtomicCoordinatesFormat Ang
%block AtomicCoordinatesAndAtomicSpecies
 28.45077357  1.78624642 25.00000001 1 #   1: H
 10.68447007  1.82545027 25.00000001 1 #   2: H
 25.93086327  0.92133971 25.00000001 1 #   3: H
 13.22837061  0.94090237 24.99999998 1 #   4: H
 35.95053833  1.04787576 25.00000000 2 #   5: C
 38.44448405  1.05714062 25.00000000 2 #   6: C
  3.18626867  1.05447412 25.00000000 2 #   7: C
  0.69062957  1.05893241 25.00000000 2 #   8: C
 33.41422390  1.09068736 25.00000000 2 #   9: C
  5.72617209  1.11302376 25.00000000 2 #  10: C
 31.21710710  1.12869991 25.00000000 1 #  11: H
  7.92165176  1.16386185 25.00000000 1 #  12: H
 23.29297689  1.25886382 25.00000000 2 #  13: C
 15.85699584  1.26339172 24.99999999 2 #  14: C
 20.82487176  1.28763806 25.00000000 2 #  15: C
 18.32341598  1.28927723 25.00000000 2 #  16: C
 37.19777828  1.78088143 25.00000000 2 #  17: C
 34.67035263  1.77291232 25.00000000 2 #  18: C
  1.93674979  1.78437112 25.00000000 2 #  19: C
 39.69670946  1.78626202 25.00000000 2 #  20: C
  4.46507587  1.78546960 25.00000000 2 #  21: C
 32.18360352  1.76457398 25.00000000 2 #  22: C
 24.28726455  1.81812409 25.00000000 1 #  23: H
 14.86473156  1.82469060 25.00000000 1 #  24: H
  6.95327655  1.79537092 25.00000000 2 #  25: C
 22.07956124  2.00227659 25.00000000 2 #  26: C
 17.06940269  2.00586567 25.00000000 2 #  27: C
 19.57409689  2.01551337 25.00000000 2 #  28: C
 29.46027197  1.99972913 25.00000002 3 #  29: O
  9.67414617  2.03504324 25.00000000 3 #  30: O
 34.65789736  3.21311513 25.00000000 2 #  31: C
 39.69610104  3.22721014 25.00000000 2 #  32: C
 37.19380034  3.22865367 25.00000000 2 #  33: C
  1.93852417  3.23214860 25.00000000 2 #  34: C
  4.47359789  3.22559660 25.00000000 2 #  35: C
 32.15485378  3.20512572 25.00000000 2 #  36: C
  6.97710774  3.23669177 25.00000001 2 #  37: C
 29.56413971  3.38341274 25.00000000 2 #  38: C
  9.56728228  3.41907993 25.00000000 2 #  39: C
 19.57282146  3.46073373 25.00000000 2 #  40: C
 22.07364019  3.47249569 25.00000000 2 #  41: C
 17.07135759  3.47622372 25.00000000 2 #  42: C
 27.39856168  3.58200815 25.00000000 1 #  43: H
 11.73223377  3.61471769 25.00000000 1 #  44: H
 24.26636297  3.64386106 25.00000000 1 #  45: H
 14.87773907  3.64756239 25.00000000 1 #  46: H
 33.40171278  3.88433779 25.00000000 2 #  47: C
  5.72548313  3.90633004 25.00000000 2 #  48: C
 38.44239343  3.95361167 25.00000000 2 #  49: C
  0.69003326  3.95568270 25.00000000 2 #  50: C
 35.93992790  3.95531534 25.00000000 2 #  51: C
  3.19037556  3.96184241 25.00000000 2 #  52: C
 30.88754650  4.00589716 24.99999999 2 #  53: C
  8.24347817  4.04222715 25.00000001 2 #  54: C
 28.38400736  4.16961711 25.00000000 2 #  55: C
 10.74806765  4.20387083 25.00000001 2 #  56: C
 20.82112394  4.18932101 25.00000000 2 #  57: C
 18.32442756  4.19067647 24.99999999 2 #  58: C
 23.28313310  4.21789604 25.00000000 2 #  59: C
 15.86060670  4.22229083 25.00000000 2 #  60: C
 25.81309636  4.52135475 25.00000003 1 #  61: H
 13.31765225  4.54032261 25.00000000 1 #  62: H
 33.38454338  5.02482899 25.00000000 1 #  63: H
  5.73729074  5.04713709 25.00000001 1 #  64: H
 35.97873624  5.36913288 25.00000000 2 #  65: C
  3.15364761  5.37498069 25.00000000 2 #  66: C
 38.44677709  5.40093103 25.00000000 2 #  67: C
  0.68707894  5.40319441 25.00000000 2 #  68: C
 30.88232967  5.41393517 25.00000000 2 #  69: C
  8.25052084  5.45157903 25.00000001 2 #  70: C
 28.36897988  5.58414608 25.00000001 2 #  71: C
 10.76688009  5.61778064 24.99999999 2 #  72: C
 23.32022386  5.63002702 25.00000000 2 #  73: C
 15.82181551  5.63519103 24.99999999 2 #  74: C
 20.82472699  5.63706439 25.00000000 2 #  75: C
 18.31993594  5.63843915 24.99999999 2 #  76: C
 25.83783417  5.66036300 25.00000002 2 #  77: C
 13.29981235  5.67940939 24.99999998 2 #  78: C
 34.98992431  5.93628405 25.00000000 1 #  79: H
  4.14272641  5.94186232 25.00000000 1 #  80: H
 31.84495243  6.03817187 25.00000000 1 #  81: H
  7.28691956  6.07581054 25.00000000 1 #  82: H
 37.19200520  6.11407359 25.00000000 2 #  83: C
  1.94141779  6.11856885 25.00000000 2 #  84: C
 39.69641896  6.13038779 25.00000000 2 #  85: C
 29.69447835  6.28728407 25.00000000 2 #  86: C
  9.44231889  6.32413761 24.99999999 2 #  87: C
 27.09267535  6.32384004 25.00000002 2 #  88: C
 12.04760003  6.35072924 24.99999999 2 #  89: C
 24.60444442  6.36235996 25.00000001 2 #  90: C
 22.07221803  6.36144608 25.00000001 2 #  91: C
 17.07233656  6.36407954 24.99999998 2 #  92: C
 14.53832089  6.37277171 24.99999998 2 #  93: C
 19.57261252  6.36623004 24.99999999 2 #  94: C
 29.86165480  7.56772806 25.00000000 3 #  95: O
  9.27992252  7.60478483 24.99999999 3 #  96: O
 39.69755567  7.57573364 25.00000000 2 #  97: C
 37.19459914  7.58434320 25.00000000 2 #  98: C
  1.94261078  7.58867384 25.00000000 2 #  99: C
 27.10429914  7.76297650 25.00000002 2 # 100: C
 34.99015955  7.77092411 25.00000000 1 # 101: H
 12.04100257  7.78998575 24.99999998 2 # 102: C
  4.15063314  7.78025633 25.00000000 1 # 103: H
 24.61360514  7.80530771 25.00000001 2 # 104: C
 14.53294624  7.81615532 24.99999998 2 # 105: C
 19.57342680  7.80612620 25.00000000 2 # 106: C
 22.07714479  7.80884183 25.00000001 2 # 107: C
 17.07002812  7.81147316 24.99999998 2 # 108: C
 38.44767123  8.30215507 25.00000000 2 # 109: C
  0.68816627  8.30399048 25.00000000 2 # 110: C
 28.20468411  8.18200554 25.00000001 1 # 111: H
 35.98462554  8.32791518 25.00000000 2 # 112: C
  3.15340935  8.33385510 25.00000000 2 # 113: C
 10.94199274  8.21415498 24.99999998 1 # 114: H
 25.89063210  8.46741169 25.00000001 2 # 115: C
 13.25971645  8.48660814 24.99999998 2 # 116: C
 20.82919930  8.53291705 25.00000000 2 # 117: C
 18.31847536  8.53434588 24.99999999 2 # 118: C
 23.33360706  8.53696588 25.00000001 2 # 119: C
 15.81532318  8.54221032 24.99999999 2 # 120: C
 33.35820547  8.63990125 25.00000000 1 # 121: H
  5.79031731  8.66238199 25.00000000 1 # 122: H
%endblock AtomicCoordinatesAndAtomicSpecies


