LatticeConstant 1.0 Ang
%block LatticeVectors
 40.25917519 0.00000000 0.00000000
 0.00000000 8.69350000 0.00000000
 0.00000000 0.00000000 50.00000000
%endblock LatticeVectors

NumberOfSpecies 3
%block ChemicalSpeciesLabel
 1 1 H
 2 6 C
 3 8 O
%endblock ChemicalSpeciesLabel

NumberOfAtoms 120
AtomicCoordinatesFormat Ang
%block AtomicCoordinatesAndAtomicSpecies
 25.93980840  0.92912795 25.00000002 1 #   1: H
 13.22224803  0.94573522 24.99999997 1 #   2: H
 35.94499127  1.04362557 25.00000000 2 #   3: C
 38.44143045  1.05522283 25.00000000 2 #   4: C
  3.18864777  1.04985159 25.00000000 2 #   5: C
  0.69031586  1.05680050 25.00000000 2 #   6: C
 33.39958279  1.09029291 25.00000000 2 #   7: C
  5.73745110  1.11233843 25.00000000 2 #   8: C
 31.14058721  1.24447592 25.00000000 1 #   9: H
  7.99452051  1.28031012 25.00000000 1 #  10: H
 23.29215611  1.26106832 25.00000000 2 #  11: C
 15.85877790  1.26478628 25.00000000 2 #  12: C
 20.82562032  1.28977893 25.00000000 2 #  13: C
 18.32389957  1.29092893 25.00000000 2 #  14: C
 37.19437807  1.77850558 25.00000000 2 #  15: C
 34.66245999  1.76830915 25.00000000 2 #  16: C
  1.93705147  1.78160193 25.00000000 2 #  17: C
 39.69517647  1.78488439 25.00000000 2 #  18: C
  4.46977172  1.78062149 25.00000000 2 #  19: C
 32.17441788  1.77803516 25.00000000 2 #  20: C
 24.28948624  1.81450242 25.00000000 1 #  21: H
 14.86336946  1.82035414 25.00000000 1 #  22: H
  6.95863149  1.80871560 25.00000000 2 #  23: C
 22.07867423  2.00592790 25.00000000 2 #  24: C
 17.07153535  2.00889652 25.00000000 2 #  25: C
 19.57473410  2.01836926 25.00000000 2 #  26: C
 29.38509320  2.03550304 24.99999998 3 #  27: O
  9.74111078  2.07489646 25.00000000 3 #  28: O
 34.66629722  3.20975469 25.00000000 2 #  29: C
 39.69444926  3.22386100 25.00000000 2 #  30: C
 37.19547504  3.22590094 25.00000000 2 #  31: C
  1.93362294  3.22904110 25.00000000 2 #  32: C
  4.46238519  3.22204320 25.00000000 2 #  33: C
 32.17802356  3.21342433 25.00000000 2 #  34: C
  6.95038045  3.24482750 25.00000000 2 #  35: C
 29.55852579  3.29231282 25.00000000 2 #  36: C
  9.56688692  3.33129954 25.00000000 2 #  37: C
 19.57345485  3.46149294 25.00000000 2 #  38: C
 22.07476077  3.47487576 25.00000000 2 #  39: C
 17.07187815  3.47782663 25.00000000 2 #  40: C
 27.39795390  3.52465655 25.00000001 1 #  41: H
 11.72566910  3.55671179 25.00000000 1 #  42: H
 24.26975255  3.64829811 25.00000000 1 #  43: H
 14.87597630  3.65112048 24.99999999 1 #  44: H
 33.42224456  3.89158043 25.00000000 2 #  45: C
  5.70198461  3.91355513 25.00000000 2 #  46: C
 38.44195131  3.95181292 25.00000000 2 #  47: C
  0.68708283  3.95371245 25.00000000 2 #  48: C
 35.94524940  3.95395953 25.00000000 2 #  49: C
  3.18184204  3.96007723 25.00000000 2 #  50: C
 30.91299373  3.99178208 25.00000000 2 #  51: C
  8.21207125  4.03053988 25.00000000 2 #  52: C
 28.35169242  4.16699802 25.00000001 2 #  53: C
 10.77460668  4.20223780 25.00000000 2 #  54: C
 20.82250371  4.19074311 25.00000000 2 #  55: C
 18.32428160  4.19211088 25.00000000 2 #  56: C
 23.28568566  4.22071245 25.00000000 2 #  57: C
 15.85974099  4.22402116 25.00000000 2 #  58: C
 25.83460970  4.53651606 25.00000002 1 #  59: H
 13.29743649  4.55203923 25.00000000 1 #  60: H
 33.41600660  5.03145811 25.00000000 1 #  61: H
  5.70309733  5.05358891 25.00000000 1 #  62: H
 35.98029573  5.36582989 25.00000000 2 #  63: C
  3.14839413  5.37123500 25.00000000 2 #  64: C
 38.44531601  5.39937459 25.00000000 2 #  65: C
  0.68459814  5.40140769 25.00000000 2 #  66: C
 30.90165619  5.37621522 25.00000001 2 #  67: C
  8.22631566  5.41593909 25.00000000 2 #  68: C
 28.34248585  5.55262018 25.00000001 2 #  69: C
 10.79012401  5.58704233 25.00000000 2 #  70: C
 23.31874837  5.63200541 25.00000000 2 #  71: C
 15.82473523  5.63567357 25.00000000 2 #  72: C
 20.82494242  5.63845602 25.00000000 2 #  73: C
 18.32103761  5.63968069 25.00000000 2 #  74: C
 25.83609177  5.67620490 25.00000001 2 #  75: C
 13.30202685  5.69225486 25.00000000 2 #  76: C
 34.99547907  5.93699153 25.00000000 1 #  77: H
  4.13351390  5.94214047 25.00000000 1 #  78: H
 31.85429752  6.01826682 25.00000000 1 #  79: H
  7.27481452  6.06194024 25.00000000 1 #  80: H
 37.19252106  6.11279840 25.00000000 2 #  81: C
  1.93700268  6.11700537 25.00000000 2 #  82: C
 39.69447805  6.13042978 25.00000000 2 #  83: C
 29.69780443  6.24943488 25.00000001 2 #  84: C
  9.43597987  6.28751345 25.00000001 2 #  85: C
 27.08470311  6.34284335 25.00000002 2 #  86: C
 12.05584112  6.36698275 24.99999999 2 #  87: C
 24.59841899  6.36980291 25.00000000 2 #  88: C
 22.07121380  6.36308866 25.00000000 2 #  89: C
 17.07441316  6.36513074 25.00000000 2 #  90: C
 14.54495144  6.37764739 24.99999999 2 #  91: C
 19.57326198  6.36811493 25.00000000 2 #  92: C
 29.87522474  7.50546620 25.00000000 3 #  93: O
  9.26400483  7.54444808 25.00000000 3 #  94: O
 39.69564269  7.57356751 25.00000000 2 #  95: C
 37.19311329  7.58173916 25.00000000 2 #  96: C
  1.94003213  7.58594129 25.00000000 2 #  97: C
 27.09597601  7.77884583 25.00000001 2 #  98: C
 34.98632318  7.76823555 25.00000000 1 #  99: H
 12.05158193  7.80295999 24.99999998 2 # 100: C
  4.15027901  7.77612544 25.00000000 1 # 101: H
 24.60758509  7.81096153 25.00000000 2 # 102: C
 14.54025698  7.81916425 24.99999998 2 # 103: C
 19.57403506  7.80720012 25.00000000 2 # 104: C
 22.07517542  7.81049033 25.00000000 2 # 105: C
 17.07280533  7.81265532 24.99999999 2 # 106: C
 38.44508927  8.30061019 25.00000000 2 # 107: C
  0.68706941  8.30240366 25.00000000 2 # 108: C
 28.13198323  8.30677539 25.00000001 1 # 109: H
 35.98077060  8.32531593 25.00000000 2 # 110: C
  3.15356050  8.33074952 25.00000000 2 # 111: C
 11.01738393  8.33591520 24.99999998 1 # 112: H
 25.87616202  8.47746995 25.00000001 2 # 113: C
 13.27561603  8.49374608 24.99999998 2 # 114: C
 20.82860849  8.53528902 25.00000000 2 # 115: C
 18.32003288  8.53641015 25.00000000 2 # 116: C
 23.32695286  8.54196048 25.00000001 2 # 117: C
 15.82253562  8.54620364 24.99999999 2 # 118: C
 33.34809201  8.63831730 25.00000000 1 # 119: H
  5.79759268  8.66047623 25.00000000 1 # 120: H
%endblock AtomicCoordinatesAndAtomicSpecies


