LatticeConstant 1.0 Ang
%block LatticeVectors
 40.25917519 0.00000000 0.00000000
 0.00000000 8.69350000 0.00000000
 0.00000000 0.00000000 50.00000000
%endblock LatticeVectors

NumberOfSpecies 3
%block ChemicalSpeciesLabel
 1 6 C
 2 1 H
 3 9 F
%endblock ChemicalSpeciesLabel

NumberOfAtoms 120
AtomicCoordinatesFormat Ang
%block AtomicCoordinatesAndAtomicSpecies
  0.67778648  5.38917036 25.00000000 1 #   1: C
  0.68111764  3.94122679 25.00000000 1 #   2: C
  0.68082815  8.28995205 25.00000000 1 #   3: C
  0.68376940  1.04388915 25.00000000 1 #   4: C
  1.92821208  3.21827537 25.00000000 1 #   5: C
  1.93019151  1.77115763 25.00000000 1 #   6: C
  1.92979285  6.10802679 25.00000000 1 #   7: C
  1.93506397  7.57676367 25.00000000 1 #   8: C
  3.14146884  5.36370254 25.00000000 1 #   9: C
  3.14994201  8.32315767 25.00000000 1 #  10: C
  3.17552379  3.95348468 25.00000000 1 #  11: C
  3.18322912  1.04200439 25.00000000 1 #  12: C
  4.12614822  5.93618936 25.00000000 2 #  13: H
  4.14608645  7.76658376 25.00000000 2 #  14: H
  4.45982534  1.78303518 25.00000000 1 #  15: C
  4.45823264  3.22054993 25.00000000 1 #  16: C
  5.70231079  3.91684483 25.00000000 1 #  17: C
  5.69857584  5.05594803 25.00000000 2 #  18: H
  5.72929894  1.12145020 25.00000000 1 #  19: C
  5.79359951  8.67105382 25.00000000 2 #  20: H
  6.94060836  1.83041560 25.00000000 1 #  21: C
  6.95552786  3.26288656 25.00000000 1 #  22: C
  7.25213528  6.09103897 25.00000000 2 #  23: H
  7.91159090  1.21968902 25.00000000 2 #  24: H
  8.22125251  5.48127382 25.00000000 1 #  25: C
  8.22737104  4.05296083 25.00000000 1 #  26: C
  9.46262741  7.35137177 25.00000001 2 #  27: H
  9.43236313  6.19991454 25.00000001 1 #  28: C
  9.49214334  3.40609483 25.00000000 1 #  29: C
  9.51887917  2.26519700 25.00000000 2 #  30: H
 10.67462828  5.52151138 25.00000002 1 #  31: C
 10.74644568  4.08564220 25.00000001 1 #  32: C
 11.07658128  1.25943125 24.99999999 2 #  33: H
 11.80887615  6.34448993 25.00000005 3 #  34: F
 12.02426753  3.31277504 25.00000000 1 #  35: C
 12.03990347  1.87876916 25.00000000 1 #  36: C
 13.15884380  0.02174503 24.99999998 2 #  37: H
 13.21629968  5.12445958 25.00000000 2 #  38: H
 13.24875582  1.16901175 24.99999999 1 #  39: C
 13.27151754  3.98244367 25.00000000 1 #  40: C
 14.51384773  3.28330291 25.00000000 1 #  41: C
 14.51446173  1.84450469 25.00000000 1 #  42: C
 14.82740763  7.84076911 25.00000000 2 #  43: H
 14.83180288  5.99416811 25.00000000 2 #  44: H
 15.79439353  1.11337124 25.00000000 1 #  45: C
 15.79508698  4.02310182 25.00000000 1 #  46: C
 15.82419483  8.39498206 25.00000000 1 #  47: C
 15.82537608  5.43483569 25.00000000 1 #  48: C
 17.03768273  7.65080944 25.00000000 1 #  49: C
 17.03838801  6.18191225 25.00000000 1 #  50: C
 17.04467570  1.84690885 25.00000000 1 #  51: C
 17.04524976  3.29462378 25.00000000 1 #  52: C
 18.29138561  1.12316760 25.00000000 1 #  53: C
 18.29120816  8.36815847 25.00000000 1 #  54: C
 18.29197496  4.02063959 25.00000000 1 #  55: C
 18.29252001  5.46826310 25.00000000 1 #  56: C
 19.54342794  7.64080374 25.00000000 1 #  57: C
 19.54487409  1.85296841 25.00000000 1 #  58: C
 19.54333907  6.19823009 25.00000000 1 #  59: C
 19.54597586  3.29244884 25.00000000 1 #  60: C
 20.79424462  8.37076614 25.00000000 1 #  61: C
 20.79522577  5.46993149 25.00000000 1 #  62: C
 20.79852376  1.12537686 25.00000000 1 #  63: C
 20.80039007  4.02189114 25.00000000 1 #  64: C
 22.04541512  1.85084796 25.00000000 1 #  65: C
 22.04739830  7.65464349 25.00000000 1 #  66: C
 22.04914425  3.29813561 25.00000000 1 #  67: C
 22.04876225  6.18549814 25.00000000 1 #  68: C
 23.26022506  8.40034742 25.00000000 1 #  69: C
 23.26349086  5.44023844 25.00000000 1 #  70: C
 23.29490426  1.11806300 25.00000000 1 #  71: C
 23.30173960  4.02888181 25.00000000 1 #  72: C
 24.25193660  7.83864080 25.00000000 2 #  73: H
 24.25045870  6.01029682 25.00000000 2 #  74: H
 24.57452487  1.85088471 25.00000000 1 #  75: C
 24.58596923  3.28907245 25.00000000 1 #  76: C
 25.83352111  1.17021398 25.00000000 1 #  77: C
 25.84290989  3.96709203 25.00000001 1 #  78: C
 25.85386106  5.10762029 25.00000001 2 #  79: H
 25.88026952  0.02570465 25.00000000 2 #  80: H
 27.05408413  1.86047768 25.00000000 1 #  81: C
 27.08900768  3.29228970 25.00000000 1 #  82: C
 27.45074748  6.10132690 25.00000000 2 #  83: H
 28.01606629  1.23514196 25.00000000 2 #  84: H
 28.38324736  4.04847857 25.00000001 1 #  85: C
 28.40990073  5.47614976 25.00000001 1 #  86: C
 29.64766756  2.23058101 25.00000000 2 #  87: H
 29.63524084  3.37278894 25.00000001 1 #  88: C
 29.63692046  6.16947534 25.00000000 1 #  89: C
 29.69123438  7.32003701 25.00000001 2 #  90: H
 30.86304653  5.46409733 25.00000000 1 #  91: C
 30.90420739  4.02623409 25.00000000 1 #  92: C
 31.21219041  1.18126550 25.00000000 2 #  93: H
 32.01493542  6.26609529 25.00000001 3 #  94: F
 32.16985077  3.23190827 25.00000000 1 #  95: C
 32.17883502  1.79750021 25.00000000 1 #  96: C
 33.29474027  8.62981213 25.00000000 2 #  97: H
 33.37399075  5.03284970 25.00000000 2 #  98: H
 33.38710748  1.08374649 25.00000000 1 #  99: C
 33.42168165  3.89233127 25.00000000 1 # 100: C
 34.66083137  3.19259799 25.00000000 1 # 101: C
 34.65668438  1.75431080 25.00000000 1 # 102: C
 34.97326439  7.75124021 25.00000000 2 # 103: H
 34.97756955  5.90796120 25.00000000 2 # 104: H
 35.93998556  3.93576303 25.00000000 1 # 105: C
 35.93755144  1.02448387 25.00000000 1 # 106: C
 35.97018615  5.34764049 25.00000000 1 # 107: C
 35.96947285  8.30665427 25.00000000 1 # 108: C
 37.18274771  6.09549264 25.00000000 1 # 109: C
 37.18362168  7.56423872 25.00000000 1 # 110: C
 37.18915430  3.20784547 25.00000000 1 # 111: C
 37.18756498  1.76030847 25.00000000 1 # 112: C
 38.43477697  3.93571540 25.00000000 1 # 113: C
 38.43537443  1.03823028 25.00000000 1 # 114: C
 38.43653023  5.38325935 25.00000000 1 # 115: C
 38.43661863  8.28352196 25.00000000 1 # 116: C
 39.68810188  3.20892515 25.00000000 1 # 117: C
 39.68628288  6.11579571 25.00000000 1 # 118: C
 39.68840185  1.76968547 25.00000000 1 # 119: C
 39.68889792  7.55810427 25.00000000 1 # 120: C
%endblock AtomicCoordinatesAndAtomicSpecies


