NumberOfSpecies 1
%block ChemicalSpeciesLabel
 1 6 C
%endblock ChemicalSpeciesLabel

LatticeConstant 1.0 Ang
%block LatticeVectors
 12.30000000 0.00000000 0.00000000
 0.00000000 4.26000000 0.00000000
 0.00000000 0.00000000 50.00000000
%endblock LatticeVectors

NumberOfAtoms 20
AtomicCoordinatesFormat Ang
%block AtomicCoordinatesAndAtomicSpecies
  0.62000000  0.71000000 25.00000000 1
  0.62000000  3.55000000 25.00000000 1
  1.85000000  1.42000000 25.00000000 1
  1.85000000  2.84000000 25.00000000 1
  3.08000000  0.71000000 25.00000000 1
  3.08000000  3.55000000 25.00000000 1
  4.31000000  1.42000000 25.00000000 1
  4.31000000  2.84000000 25.00000000 1
  5.54000000  0.71000000 25.00000000 1
  5.54000000  3.55000000 25.00000000 1
  6.77000000  1.42000000 25.00000000 1
  6.77000000  2.84000000 25.00000000 1
  8.00000000  0.71000000 25.00000000 1
  8.00000000  3.55000000 25.00000000 1
  9.23000000  1.42000000 25.00000000 1
  9.23000000  2.84000000 25.00000000 1
 10.46000000  0.71000000 25.00000000 1
 10.46000000  3.55000000 25.00000000 1
 11.69000000  1.42000000 25.00000000 1
 11.69000000  2.84000000 25.00000000 1
%endblock AtomicCoordinatesAndAtomicSpecies
